LAMMPS (7 Sep 2016)
# Input file for lammps simulation using Isotropic-anharmonic Shell Model
# proposed by Vielma and Schneider based on PBE Generalized Gradient
# Approximation(GGA) to Density Functional Theory(DFT):
# [Vielma Schneider 2013](http://dx.doi.org/10.1063/1.4827475)

# Vishal Boddu, June 2016

# ------------------------ INITIALIZATION ---------------------------------

units 		metal
dimension	3
boundary	p	p	s
atom_style	full

# ----------------------- ATOM DEFINITION ----------------------------

fix csinfo all property/atom i_CSID
read_data atom.data fix csinfo NULL CS-Info
  orthogonal box = (0 0 0) to (4.01 4.01 4.01)
  2 by 2 by 2 MPI processor grid
  reading atoms ...
  10 atoms
  scanning bonds ...
  1 = max bonds/atom
  reading bonds ...
  5 bonds
  1 = max # of 1-2 neighbors
  0 = max # of 1-3 neighbors
  0 = max # of 1-4 neighbors
  1 = max # of special neighbors
WARNING: Proc sub-domain size < neighbor skin, could lead to lost atoms (/tmp/dan/spack-stage/spack-stage-5I_aA6/lammps-feature-CORESHELL-pol/src/domain.cpp:936)

#change_box all x scale ${a} y scale ${b} z scale ${c} remap
#change_box all triclinic xy delta ${XY} xz delta ${XZ} yz delta ${YZ} remap
#change_box all triclinic xy delta 0.0 xz delta 0.0 yz delta 0.0 remap

group cores type 1 3 5
5 atoms in group cores
group shells type 2 4 6
5 atoms in group shells

neighbor 0.5 bin
neigh_modify delay 10 check yes
comm_modify vel yes

# ------------------------ FORCE FIELDS ------------------------------

#kspace_style ewald 1.0e-6
#pair_style   born/coul/long/cs 7.0
pair_style born/coul/wolf/cs 0.25 16 14.5

#------------------------ A,  rho, sigma=0,     C,      D
pair_coeff	*	*	 0.0000	1.0000	0.000	0.0000	0.000
pair_coeff	2	6	1588.36	0.3553	0.000	0.0000	0.000
pair_coeff	4	6	3131.25	0.2591	0.000	0.0000	0.000
pair_coeff	6	6	2641.41	0.3507	0.000	535.37	0.000
pair_modify tail no

bond_style class2
bond_coeff	1	0.0	155.820	0.0		   0.0000000
bond_coeff	2	0.0	166.275	0.0		 20.83333333
bond_coeff	3	0.0	 23.155	0.0		274.96833333
change_box all triclinic xy delta 0.0132976391992 yz delta 0.0132976391992 xz delta 0.0132976391992 remap
  triclinic box = (0 0 -0.00060158) to (4.01 4.01 2.0056) with tilt (0 0 0)
  triclinic box = (0 0 -0.000802201) to (4.01 4.01 2.0058) with tilt (0.0132976 0 0)
  triclinic box = (0 0 -0.00100286) to (4.01 4.01 2.006) with tilt (0.0132976 0 0.0132976)
  triclinic box = (0 0 -0.00120356) to (4.01 4.01 2.0062) with tilt (0.0132976 0.0132976 0.0132976)
compute dr all displace/atom
thermo 50
thermo_style custom step etotal epair evdwl ecoul elong ebond fnorm lx ly lz temp press pxx pyy pzz
dump dump_positions all atom 100 atomdump
dump dump_displace all custom 100 displdump  id type c_dr[1] c_dr[2] c_dr[3]
fix ef all efield -0.00288675134595 -0.00288675134595 -0.00288675134595
fix_modify ef energy yes
min_style fire
minimize 0.0 1e-06 20000 100000
WARNING: Resetting reneighboring criteria during minimization (/tmp/dan/spack-stage/spack-stage-5I_aA6/lammps-feature-CORESHELL-pol/src/min.cpp:168)
Neighbor list info ...
  1 neighbor list requests
  update every 1 steps, delay 0 steps, check yes
  max neighbors/atom: 2000, page size: 100000
  master list distance cutoff = 16.5
  ghost atom cutoff = 16.5
  binsize = 8.25 -> bins = 1 1 1
Memory usage per processor = 9.02282 Mbytes
Step TotEng E_pair E_vdwl E_coul E_long E_bond Fnorm Lx Ly Lz Temp Press Pxx Pyy Pzz 
       0   -112.48944   -112.48204    8.2656887   -120.74773            0            0    23.982295         4.01         4.01    2.0070059            0   -586009.67   -772752.53   -772710.88    -212565.6 
      50   -113.69064   -115.18751    10.230548   -125.41806            0    1.3948643    2.6027681         4.01         4.01    2.0070059    94.923672   -471555.99   -559385.77    -559335.3   -295946.91 
     100   -113.98839   -115.86707    11.568698   -127.43576            0    1.8819285     2.075228         4.01         4.01    2.0070059    4.5856733   -383581.83    -462031.3   -461978.48   -226735.71 
     150   -114.05874   -116.03239    12.280779   -128.31317            0    1.9673955    2.0601532         4.01         4.01    2.0070059    12.704893   -328536.26   -419189.39   -419135.22   -147284.17 
     200   -114.12331   -116.26679    12.774067   -129.04086            0    2.1479147    1.5315513         4.01         4.01    2.0070059    3.4804571   -296858.24   -383504.05   -383448.87   -123621.79 
     250   -114.15807   -116.42942    13.119713   -129.54914            0    2.2779929    1.2142483         4.01         4.01    2.0070059    1.5532733   -274844.23   -358368.65   -358312.77   -107851.28 
     300   -114.19435   -116.64684    13.629157     -130.276            0    2.4578681   0.89828748         4.01         4.01    2.0070059    2.6179223   -242023.63   -322168.41   -322111.51   -81790.978 
     350   -114.21149   -116.73884    13.992432   -130.73127            0    2.5311566   0.99845631         4.01         4.01    2.0070059    3.9787925   -216505.99   -299160.84   -299103.23   -51253.888 
     400   -114.22617   -116.90067    14.226783   -131.12745            0    2.6800949   0.72404062         4.01         4.01    2.0070059    2.4994199   -204646.32   -279015.71   -278957.02   -55966.217 
     450   -114.23318   -116.94347    14.391433   -131.33491            0    2.7168457   0.54113657         4.01         4.01    2.0070059    1.7296493   -193435.65   -268242.66   -268183.06   -43881.207 
     500   -114.24292   -116.98751     14.63774   -131.62525            0    2.7532765   0.59606049         4.01         4.01    2.0070059  0.013114724   -175986.36    -253244.5   -253183.39   -21531.206 
     550   -114.24864   -117.02308    14.835019   -131.85809            0    2.7831091    1.0177649         4.01         4.01    2.0070059   0.18732577   -162115.07   -241246.87   -241183.73   -3914.6333 
     600   -114.25617   -117.10868    14.953237   -132.06191            0    2.8616243    0.4476386         4.01         4.01    2.0070059  0.027196699    -156585.9   -230333.35   -230264.59   -9159.7593 
     650   -114.26419   -117.16656    15.064054   -132.23062            0    2.9117397   0.47466232         4.01         4.01    2.0070059  0.069045185   -150530.03   -221360.27   -221285.22   -8944.6091 
     700   -114.27437   -117.19382    15.203426   -132.39725            0    2.9291273   0.50433738         4.01         4.01    2.0070059   0.11721786    -141082.4    -212440.3   -212357.41    1550.5163 
     750   -114.28356   -117.24292    15.374989   -132.61791            0     2.961431    0.5722434         4.01         4.01    1.8340008    7.1143429   -142412.02   -218789.74   -218684.64    10238.308 
     800   -114.30818   -117.29061     15.51655   -132.80716            0    2.9929976   0.58590137         4.01         4.01    1.8340008   0.22891524   -133927.78   -208483.75   -208373.11    15073.532 
     850   -114.32651   -117.34759    15.665607   -133.01319            0    3.0315518   0.60407991         4.01         4.01    1.8340008   0.75971641   -125755.82   -196635.94   -196524.06    15892.542 
     900   -114.33873   -117.35655    15.797264   -133.15382            0    3.0282288   0.53571519         4.01         4.01    1.8340008    1.1454961   -116841.47   -189160.85   -189058.39    27694.826 
     950   -114.34946   -117.41304    15.877347   -133.29039            0    3.0746435    0.4843863         4.01         4.01    1.8340008   0.87264103   -115083.43   -182333.59   -182243.57    19326.865 
    1000   -114.35272    -117.4493    15.968681   -133.41798            0    3.1018685   0.44471495         4.01         4.01    1.8340008    6.1489918   -111962.31   -176937.07   -176871.14    17921.283 
    1050   -114.36316   -117.45729    16.001618   -133.45891            0    3.1067109   0.33097023         4.01         4.01    1.8340008 0.0094758448   -111244.57   -175561.79   -175508.23    17336.303 
    1100   -114.36706   -117.47934    16.034742   -133.51408            0     3.125068   0.33070107         4.01         4.01    1.8340008  0.012735328   -111810.26   -174236.49   -174202.74     13008.44 
    1150    -114.3685   -117.48296    16.048448    -133.5314            0    3.1273203   0.23864822         4.01         4.01    1.8340008  0.033327641    -111852.3   -174251.47   -174228.14    12922.696 
    1200   -114.37002   -117.48651    16.065217   -133.55173            0    3.1295024   0.16699723         4.01         4.01    1.8340008  0.008991815   -111889.95   -174422.81   -174415.15    13168.104 
    1250   -114.37011   -117.49776    16.063626   -133.56138            0    3.1398176    0.1844747         4.01         4.01    1.8340008   0.80703057   -113620.43   -174749.92   -174749.55    8638.1825 
    1300    -114.3713   -117.50886    16.062995   -133.57185            0    3.1501617   0.29225202         4.01         4.01    1.8340008   0.51828741   -115412.02   -175073.83   -175074.17    3911.9489 
    1350   -114.37232    -117.5026    16.071533   -133.57413            0    3.1435031  0.098673267         4.01         4.01    1.8340008  0.035989741    -115022.8   -176210.15   -176241.74    7383.4807 
    1400   -114.37264   -117.50814    16.068922   -133.57706            0    3.1488154   0.10860897         4.01         4.01    1.8340008 0.00098597215   -116025.43   -176263.61   -176285.09     4472.413 
    1450   -114.37287   -117.50688    16.069808   -133.57668            0    3.1473668  0.086068113         4.01         4.01    1.8340008 0.00022016389   -116352.83   -177173.49   -177233.44     5348.451 
    1500   -114.37284   -117.51184    16.066827   -133.57866            0    3.1522087   0.10109247         4.01         4.01    1.8340008   0.16079924    -117262.8   -177058.77   -177077.75    2348.1115 
    1550   -114.37309    -117.5116    16.067576   -133.57917            0    3.1519079  0.049069062         4.01         4.01    1.8340008  0.017669602   -117420.18   -177499.04   -177545.57     2784.066 
    1600   -114.37313   -117.51273      16.0672   -133.57993            0    3.1529988    0.0544105         4.01         4.01    1.8340008  0.036653491   -117729.82   -177579.58   -177609.24    1999.3805 
    1650    -114.3732   -117.51333    16.067466   -133.58079            0     3.153561  0.036980391         4.01         4.01    1.8340008    0.0249211   -117951.03   -177975.24   -178064.33    2186.4712 
    1700   -114.37327   -117.51448     16.06713   -133.58161            0    3.1546905  0.033245397         4.01         4.01    1.8340008 0.0010237821   -118237.37   -178022.56   -178065.29    1375.7414 
    1750   -114.37329   -117.51475    16.066969   -133.58172            0    3.1549483  0.024309013         4.01         4.01    1.8340008   0.00163629   -118368.11   -178173.66   -178257.36    1326.7046 
    1800   -114.37331   -117.51508    16.067132   -133.58221            0     3.155271   0.04273742         4.01         4.01    1.8340008 0.00020146701   -118489.54   -178384.98   -178614.37    1530.7134 
    1850   -114.37332   -117.51568     16.06708   -133.58276            0     3.155869  0.018275517         4.01         4.01    1.8340008 0.0012558711   -118604.77   -178300.11   -178368.14    853.94552 
    1900   -114.37333   -117.51612    16.067244   -133.58336            0    3.1563075   0.01606335         4.01         4.01    1.8340008 0.0012687902   -118696.59   -178360.95   -178509.43    780.60624 
    1950   -114.37334   -117.51646    16.067351   -133.58381            0    3.1566507  0.014604014         4.01         4.01    1.8340008 0.00071112331   -118772.38    -178428.6   -178439.96    551.43055 
    2000   -114.37334   -117.51658    16.067311   -133.58389            0    3.1567722  0.014602535         4.01         4.01    1.8340008 0.0015206778   -118824.26    -178486.4   -178439.59    453.19633 
    2050   -114.37335   -117.51691    16.067476   -133.58438            0    3.1570979  0.012710047         4.01         4.01    1.8340008 4.2048779e-05   -118879.01   -178405.99   -178637.58    406.54101 
    2100   -114.37335   -117.51708    16.067541   -133.58462            0    3.1572755  0.010311496         4.01         4.01    1.8340008 0.00013979515   -118917.44   -178444.73   -178635.73     328.1315 
    2150   -114.37336   -117.51718    16.067551   -133.58474            0    3.1573785 0.0084184784         4.01         4.01    1.8340008 6.941554e-05   -118946.58   -178476.46   -178633.68    270.40199 
    2200   -114.37336   -117.51743    16.067713   -133.58515            0     3.157631 0.0099355332         4.01         4.01    1.8340008 1.9467786e-05   -118986.32   -178455.39   -178691.23    187.67035 
    2250   -114.37336    -117.5175    16.067748   -133.58525            0    3.1577003 0.0059135774         4.01         4.01    1.8340008 6.662836e-05   -119006.15   -178542.48   -178627.64     151.6696 
    2300   -114.37336   -117.51768    16.067887   -133.58557            0    3.1578834 0.0060163361         4.01         4.01    1.8340008 2.340117e-05    -119033.4   -178569.07      -178622    90.883711 
    2350   -114.37336   -117.51776    16.067928   -133.58569            0    3.1579593  0.004452039         4.01         4.01    1.8340008 9.8841913e-06   -119050.15   -178558.35   -178654.18    62.084782 
    2400   -114.37336   -117.51784    16.068003   -133.58584            0    3.1580396 0.0038164144         4.01         4.01    1.8340008 2.9505325e-05   -119062.82   -178548.74   -178674.73    34.996415 
    2450   -114.37336   -117.51788    16.068018   -133.58589            0    3.1580786 0.0032614822         4.01         4.01    1.8340008 6.4592818e-05   -119074.17   -178565.63   -178671.38    14.501272 
    2500   -114.37336   -117.51795    16.068068   -133.58601            0      3.15815 0.0028859298         4.01         4.01    1.8340008 4.1409542e-05   -119085.99   -178572.27   -178677.09   -8.6172558 
    2550   -114.37336     -117.518      16.0681    -133.5861            0    3.1582081 0.0048349831         4.01         4.01    1.8340008 0.00021830771   -119097.37   -178534.23   -178724.83   -33.046971 
    2600   -114.37336   -117.51804    16.068155   -133.58619            0    3.1582445 0.0056761628         4.01         4.01    1.8340008 3.7893925e-06   -119103.39   -178618.14   -178647.53   -44.502522 
    2650   -114.37336   -117.51808    16.068169   -133.58624            0    3.1582833 0.0023605399         4.01         4.01    1.8340008 1.6323931e-06   -119109.86   -178586.77   -178684.81   -58.015585 
    2700   -114.37336    -117.5181    16.068191   -133.58629            0    3.1583099 0.0017355788         4.01         4.01    1.8340008 7.8138846e-05   -119113.43   -178572.49   -178702.02    -65.77865 
    2750   -114.37336   -117.51814    16.068237   -133.58638            0    3.1583497 0.0028601049         4.01         4.01    1.8340008 8.453758e-05   -119118.74   -178555.13   -178723.23   -77.867228 
    2800   -114.37336   -117.51817    16.068269   -133.58644            0    3.1583812 0.0015663352         4.01         4.01    1.8340008 8.1193571e-07   -119122.65   -178584.62    -178695.9   -87.427789 
    2850   -114.37336   -117.51819     16.06829   -133.58648            0    3.1583983 0.0011941349         4.01         4.01    1.8340008 9.4931686e-06   -119125.25   -178583.17   -178699.74   -92.842536 
    2900   -114.37336   -117.51821    16.068309   -133.58652            0    3.1584248 0.0017543858         4.01         4.01    1.8340008 3.385572e-05   -119128.96   -178566.64   -178719.11    -101.1368 
    2950   -114.37336   -117.51823    16.068334   -133.58656            0    3.1584411 0.0013093027         4.01         4.01    1.8340008 1.1868205e-06   -119130.85   -178587.24   -178699.44   -105.86154 
    3000   -114.37336   -117.51825    16.068357    -133.5866            0    3.1584571 0.0021609438         4.01         4.01    1.8340008 2.8966191e-05   -119132.56   -178560.51   -178727.13   -110.04588 
    3050   -114.37336   -117.51826    16.068361   -133.58662            0    3.1584668 0.00073303261         4.01         4.01    1.8340008 2.3944894e-06   -119134.46   -178582.66    -178706.7   -114.01008 
    3100   -114.37336   -117.51827    16.068378   -133.58665            0    3.1584801 0.0013858359         4.01         4.01    1.8340008 4.1168103e-07   -119135.82   -178589.86   -178700.14   -117.46156 
    3150   -114.37336   -117.51828    16.068384   -133.58666            0    3.1584877 0.00056156264         4.01         4.01    1.8340008 2.2102454e-08   -119137.12   -178576.06   -178715.06   -120.25185 
    3200   -114.37336   -117.51828     16.06839   -133.58667            0     3.158494 0.00060029101         4.01         4.01    1.8340008 1.1289396e-06   -119138.16   -178574.98   -178717.09     -122.403 
    3250   -114.37336   -117.51829    16.068401   -133.58669            0    3.1585033 0.0014212558         4.01         4.01    1.8340008 9.8610121e-06    -119139.1   -178566.83   -178725.81   -124.66479 
    3300   -114.37336    -117.5183    16.068407    -133.5867            0    3.1585083 0.00033309347         4.01         4.01    1.8340008 7.7156598e-10   -119139.84    -178579.5   -178713.48   -126.51897 
    3350   -114.37336    -117.5183    16.068416   -133.58672            0    3.1585146 0.0004027518         4.01         4.01    1.8340008 4.5973876e-07   -119140.43   -178575.49   -178717.67    -128.1158 
    3400   -114.37336   -117.51831    16.068418   -133.58672            0    3.1585176 0.00026871292         4.01         4.01    1.8340008 4.4454284e-07   -119140.98   -178579.16   -178714.45    -129.3284 
    3450   -114.37336   -117.51831    16.068424   -133.58673            0    3.1585223 0.00025261889         4.01         4.01    1.8340008 3.9778999e-07   -119141.48   -178576.74   -178717.09   -130.62024 
    3500   -114.37336   -117.51832     16.06843   -133.58675            0    3.1585278 0.00020269924         4.01         4.01    1.8340008 1.1819655e-07   -119142.03   -178578.17   -178715.94   -131.98553 
    3550   -114.37336   -117.51832    16.068435   -133.58675            0    3.1585314 0.00017054034         4.01         4.01    1.8340008 5.530544e-08   -119142.49   -178577.86   -178716.48   -133.13203 
    3600   -114.37336   -117.51832    16.068437   -133.58676            0    3.1585336 0.00014832705         4.01         4.01    1.8340008 1.0543116e-07   -119142.81   -178577.57   -178716.97   -133.87838 
    3650   -114.37336   -117.51832    16.068443   -133.58677            0    3.1585374 0.00011721271         4.01         4.01    1.8340008 1.7508495e-07   -119143.13   -178576.83   -178717.74   -134.82568 
    3700   -114.37336   -117.51833    16.068444   -133.58677            0    3.1585387 0.00010404133         4.01         4.01    1.8340008 1.9960394e-07   -119143.43   -178576.65    -178718.2   -135.42523 
    3750   -114.37336   -117.51833    16.068447   -133.58678            0    3.1585412 9.4594657e-05         4.01         4.01    1.8340008 6.6976644e-09   -119143.68   -178576.25   -178718.75   -136.02272 
    3800   -114.37336   -117.51833    16.068448   -133.58678            0    3.1585424 9.5140725e-05         4.01         4.01    1.8340008 1.3627988e-07   -119143.87   -178575.86   -178719.25   -136.48774 
    3850   -114.37336   -117.51833     16.06845   -133.58678            0    3.1585443 9.8254693e-05         4.01         4.01    1.8340008 1.1676675e-07   -119144.08   -178576.64   -178718.57     -137.021 
    3900   -114.37336   -117.51833    16.068452   -133.58679            0    3.1585458 7.3386039e-05         4.01         4.01    1.8340008 4.9328197e-08   -119144.18   -178575.37   -178719.85   -137.32037 
    3950   -114.37336   -117.51833    16.068454   -133.58679            0    3.1585472 5.7397938e-05         4.01         4.01    1.8340008 6.7610246e-08   -119144.32    -178575.3   -178719.97   -137.70074 
    4000   -114.37336   -117.51834    16.068455   -133.58679            0    3.1585481 6.403705e-05         4.01         4.01    1.8340008 3.014179e-10   -119144.46   -178575.61   -178719.73   -138.04327 
    4050   -114.37336   -117.51834    16.068456   -133.58679            0    3.1585489 8.0210321e-05         4.01         4.01    1.8340008 4.8155476e-08   -119144.53   -178574.37   -178721.01     -138.222 
    4100   -114.37336   -117.51834    16.068457   -133.58679            0    3.1585495 5.189442e-05         4.01         4.01    1.8340008 1.238907e-08    -119144.6   -178574.36   -178721.03   -138.40581 
    4150   -114.37336   -117.51834    16.068458   -133.58679            0      3.15855 3.8570014e-05         4.01         4.01    1.8340008 8.7991491e-09   -119144.67   -178574.35   -178721.12   -138.55376 
    4200   -114.37336   -117.51834    16.068458    -133.5868            0    3.1585508 3.5770537e-05         4.01         4.01    1.8340008 5.4960085e-09   -119144.77   -178574.56   -178720.94   -138.79783 
    4250   -114.37336   -117.51834    16.068459    -133.5868            0    3.1585511 2.6900713e-05         4.01         4.01    1.8340008 3.5955013e-09    -119144.8   -178574.03    -178721.5   -138.86516 
    4300   -114.37336   -117.51834    16.068459    -133.5868            0    3.1585515 2.1800414e-05         4.01         4.01    1.8340008 1.308532e-09   -119144.84   -178573.95   -178721.61   -138.97477 
    4350   -114.37336   -117.51834     16.06846    -133.5868            0     3.158552 1.7813144e-05         4.01         4.01    1.8340008 1.9522212e-08    -119144.9    -178573.7   -178721.88   -139.11325 
    4400   -114.37336   -117.51834     16.06846    -133.5868            0    3.1585526 5.8850739e-05         4.01         4.01    1.8340008 9.4155376e-10   -119144.95   -178573.94   -178721.61   -139.30833 
    4450   -114.37336   -117.51834    16.068461    -133.5868            0    3.1585526 1.3001995e-05         4.01         4.01    1.8340008 1.9248207e-09   -119144.96   -178573.32   -178722.27   -139.29346 
    4500   -114.37336   -117.51834    16.068461    -133.5868            0    3.1585527 1.2950414e-05         4.01         4.01    1.8340008 1.7269349e-09   -119144.98   -178573.12   -178722.48    -139.3309 
    4550   -114.37336   -117.51834    16.068461    -133.5868            0     3.158553 1.0774788e-05         4.01         4.01    1.8340008 3.3911103e-10      -119145   -178572.92   -178722.68   -139.40281 
    4600   -114.37336   -117.51834    16.068462    -133.5868            0    3.1585532 1.0130796e-05         4.01         4.01    1.8340008 1.3434541e-10   -119145.02   -178572.73   -178722.88   -139.45298 
    4650   -114.37336   -117.51834    16.068462    -133.5868            0    3.1585534 1.2165462e-05         4.01         4.01    1.8340008 3.2111415e-09   -119145.04   -178572.65   -178722.96   -139.51544 
    4700   -114.37336   -117.51834    16.068462    -133.5868            0    3.1585535 1.2269103e-05         4.01         4.01    1.8340008 1.1188731e-09   -119145.05   -178572.49   -178723.12   -139.54844 
    4750   -114.37336   -117.51834    16.068462    -133.5868            0    3.1585535 8.0787643e-06         4.01         4.01    1.8340008 2.0024514e-10   -119145.06   -178572.25   -178723.38   -139.54775 
    4800   -114.37336   -117.51834    16.068462    -133.5868            0    3.1585536 1.2079147e-05         4.01         4.01    1.8340008 2.3138323e-09   -119145.06   -178572.02   -178723.61   -139.55372 
    4850   -114.37336   -117.51834    16.068462    -133.5868            0    3.1585537  1.39431e-05         4.01         4.01    1.8340008 1.7517932e-09   -119145.07    -178571.8   -178723.83    -139.5767 
    4900   -114.37336   -117.51834    16.068462    -133.5868            0    3.1585538 6.6806489e-06         4.01         4.01    1.8340008 1.8341242e-11   -119145.08   -178571.81   -178723.82   -139.62256 
    4950   -114.37336   -117.51834    16.068462    -133.5868            0    3.1585539 1.6458805e-05         4.01         4.01    1.8340008 1.478156e-09   -119145.09    -178571.8   -178723.82   -139.65845 
    5000   -114.37336   -117.51834    16.068463    -133.5868            0    3.1585539 5.6615346e-06         4.01         4.01    1.8340008 5.9663399e-12   -119145.09   -178571.52    -178724.1   -139.63958 
    5050   -114.37336   -117.51834    16.068463    -133.5868            0    3.1585539 6.1240621e-06         4.01         4.01    1.8340008 1.9902664e-10   -119145.09    -178571.4   -178724.23   -139.65332 
    5100   -114.37336   -117.51834    16.068463    -133.5868            0    3.1585539 9.3186734e-06         4.01         4.01    1.8340008 2.514513e-10   -119145.09   -178571.19   -178724.44    -139.6518 
    5150   -114.37336   -117.51834    16.068463    -133.5868            0    3.1585539 5.841295e-06         4.01         4.01    1.8340008 5.5920722e-11    -119145.1   -178571.15   -178724.49    -139.6615 
    5200   -114.37336   -117.51834    16.068463    -133.5868            0     3.158554 5.9169281e-06         4.01         4.01    1.8340008 1.7365725e-10    -119145.1   -178571.05   -178724.59   -139.66503 
    5250   -114.37336   -117.51834    16.068463    -133.5868            0     3.158554 4.4104362e-06         4.01         4.01    1.8340008 4.8569331e-10    -119145.1   -178570.97   -178724.66   -139.67534 
    5300   -114.37336   -117.51834    16.068463    -133.5868            0     3.158554 7.5064744e-06         4.01         4.01    1.8340008 1.051007e-09    -119145.1   -178570.79   -178724.85   -139.67198 
    5350   -114.37336   -117.51834    16.068463    -133.5868            0     3.158554 2.4169915e-05         4.01         4.01    1.8340008 1.6695708e-10   -119145.11   -178570.91   -178724.71   -139.70455 
    5400   -114.37336   -117.51834    16.068463    -133.5868            0     3.158554 3.7948015e-06         4.01         4.01    1.8340008 1.032403e-10   -119145.11   -178570.65   -178724.98   -139.68593 
    5450   -114.37336   -117.51834    16.068463    -133.5868            0     3.158554 3.6722091e-06         4.01         4.01    1.8340008 1.2019833e-10   -119145.11   -178570.56   -178725.07    -139.6856 
    5500   -114.37336   -117.51834    16.068463    -133.5868            0     3.158554 3.3515001e-06         4.01         4.01    1.8340008 2.7036239e-11   -119145.11   -178570.46   -178725.17   -139.68877 
    5550   -114.37336   -117.51834    16.068463    -133.5868            0     3.158554 3.9769235e-06         4.01         4.01    1.8340008 1.2105304e-11   -119145.11   -178570.36   -178725.27   -139.68857 
    5600   -114.37336   -117.51834    16.068463    -133.5868            0     3.158554 3.0955177e-06         4.01         4.01    1.8340008 8.849799e-12   -119145.11    -178570.3   -178725.33   -139.69167 
    5650   -114.37336   -117.51834    16.068463    -133.5868            0     3.158554 7.6188069e-06         4.01         4.01    1.8340008 4.0625733e-10   -119145.11   -178570.16   -178725.48   -139.68745 
    5700   -114.37336   -117.51834    16.068463    -133.5868            0    3.1585541 6.4585865e-06         4.01         4.01    1.8340008 5.9899771e-12   -119145.11    -178570.2   -178725.43   -139.69755 
    5750   -114.37336   -117.51834    16.068463    -133.5868            0    3.1585541 3.4624033e-06         4.01         4.01    1.8340008 1.3888314e-11   -119145.11   -178570.07   -178725.56   -139.69292 
    5800   -114.37336   -117.51834    16.068463    -133.5868            0    3.1585541 8.9641214e-06         4.01         4.01    1.8340008 2.8278383e-10   -119145.11   -178569.95   -178725.69   -139.69018 
    5850   -114.37336   -117.51834    16.068463    -133.5868            0    3.1585541 5.1575613e-06         4.01         4.01    1.8340008 2.7750342e-10   -119145.11   -178569.93    -178725.7   -139.69242 
    5900   -114.37336   -117.51834    16.068463    -133.5868            0    3.1585541 2.4474468e-06         4.01         4.01    1.8340008 1.1483459e-11   -119145.11   -178569.91   -178725.72   -139.69537 
    5950   -114.37336   -117.51834    16.068463    -133.5868            0    3.1585541 2.6675354e-06         4.01         4.01    1.8340008 5.7669619e-13   -119145.11   -178569.86   -178725.78    -139.6963 
    6000   -114.37336   -117.51834    16.068463    -133.5868            0    3.1585541 2.8541438e-06         4.01         4.01    1.8340008 8.7336138e-14   -119145.11   -178569.77   -178725.86   -139.69536 
    6050   -114.37336   -117.51834    16.068463    -133.5868            0    3.1585541 2.0718564e-06         4.01         4.01    1.8340008 3.6011079e-11   -119145.11   -178569.75   -178725.89   -139.69608 
    6100   -114.37336   -117.51834    16.068463    -133.5868            0    3.1585541 2.5116083e-06         4.01         4.01    1.8340008 5.070318e-11   -119145.11   -178569.67   -178725.96   -139.69593 
    6150   -114.37336   -117.51834    16.068463    -133.5868            0    3.1585541 2.5084918e-06         4.01         4.01    1.8340008 4.0843076e-12   -119145.11   -178569.62   -178726.01   -139.69611 
    6200   -114.37336   -117.51834    16.068463    -133.5868            0    3.1585541 2.6068815e-06         4.01         4.01    1.8340008 3.1810263e-11   -119145.11   -178569.59   -178726.04   -139.69614 
    6250   -114.37336   -117.51834    16.068463    -133.5868            0    3.1585541 3.9128821e-06         4.01         4.01    1.8340008 5.6340892e-11   -119145.11   -178569.53   -178726.11   -139.69606 
    6300   -114.37336   -117.51834    16.068463    -133.5868            0    3.1585541 2.8705977e-06         4.01         4.01    1.8340008 5.9454683e-11   -119145.11   -178569.51   -178726.13   -139.69634 
    6350   -114.37336   -117.51834    16.068463    -133.5868            0    3.1585541 1.5346596e-06         4.01         4.01    1.8340008 3.511379e-11   -119145.11   -178569.47   -178726.17    -139.6968 
    6400   -114.37336   -117.51834    16.068463    -133.5868            0    3.1585541 2.8086228e-06         4.01         4.01    1.8340008 6.2752502e-11   -119145.11   -178569.41   -178726.22   -139.69673 
    6450   -114.37336   -117.51834    16.068463    -133.5868            0    3.1585541 1.4798988e-06         4.01         4.01    1.8340008 6.2399238e-11   -119145.11   -178569.41   -178726.23   -139.69694 
    6500   -114.37336   -117.51834    16.068463    -133.5868            0    3.1585541 1.7569379e-06         4.01         4.01    1.8340008 1.5031167e-11   -119145.11   -178569.36   -178726.28   -139.69688 
    6550   -114.37336   -117.51834    16.068463    -133.5868            0    3.1585541 1.972768e-06         4.01         4.01    1.8340008 1.1007221e-11   -119145.11   -178569.31   -178726.32    -139.6969 
    6600   -114.37336   -117.51834    16.068463    -133.5868            0    3.1585541 1.3054526e-06         4.01         4.01    1.8340008 5.8242765e-12   -119145.11    -178569.3   -178726.33   -139.69704 
    6650   -114.37336   -117.51834    16.068463    -133.5868            0    3.1585541 7.1841272e-06         4.01         4.01    1.8340008 9.7014795e-12   -119145.11    -178569.2   -178726.43   -139.69664 
    6700   -114.37336   -117.51834    16.068463    -133.5868            0    3.1585541 2.0946629e-06         4.01         4.01    1.8340008 8.8708084e-12   -119145.11   -178569.22   -178726.42   -139.69696 
    6750   -114.37336   -117.51834    16.068463    -133.5868            0    3.1585541 1.4339198e-06         4.01         4.01    1.8340008 1.1397624e-11   -119145.11    -178569.2   -178726.43   -139.69702 
    6800   -114.37336   -117.51834    16.068463    -133.5868            0    3.1585541 1.1235877e-06         4.01         4.01    1.8340008 1.0870006e-11   -119145.11   -178569.18   -178726.46   -139.69706 
    6824   -114.37336   -117.51834    16.068463    -133.5868            0    3.1585541 9.9518515e-07         4.01         4.01    1.8340008 1.3179789e-11   -119145.11   -178569.17   -178726.47   -139.69709 
Loop time of 16.4549 on 8 procs for 6824 steps with 10 atoms

28.3% CPU use with 8 MPI tasks x no OpenMP threads

Minimization stats:
  Stopping criterion = force tolerance
  Energy initial, next-to-last, final = 
         -112.48944341     -114.373362708     -114.373362708
  Force two-norm initial, final = 23.9823 9.95185e-07
  Force max component initial, final = 12.7041 3.48474e-07
  Final line search alpha, max atom move = 0 0
  Iterations, force evaluations = 6824 6824

MPI task timing breakdown:
Section |  min time  |  avg time  |  max time  |%varavg| %total
---------------------------------------------------------------
Pair    | 0.015843   | 1.0766     | 5.0556     | 153.6 |  6.54
Bond    | 0.0048455  | 0.0062876  | 0.0087571  |   1.9 |  0.04
Neigh   | 6.2514e-05 | 0.00022489 | 0.00048874 |   0.8 |  0.00
Comm    | 8.2193     | 12.557     | 14.651     |  64.8 | 76.31
Output  | 0.072977   | 0.077193   | 0.084693   |   1.1 |  0.47
Modify  | 0.0053605  | 0.00784    | 0.010539   |   2.6 |  0.05
Other   |            | 2.73       |            |       | 16.59

Nlocal:    1.25 ave 4 max 0 min
Histogram: 4 0 0 0 0 3 0 0 0 1
Nghost:    808.75 ave 810 max 806 min
Histogram: 1 0 0 0 0 3 0 0 0 4
Neighs:    331.375 ave 1702 max 0 min
Histogram: 5 1 0 1 0 0 0 0 0 1

Total # of neighbors = 2651
Ave neighs/atom = 265.1
Ave special neighs/atom = 1
Neighbor list builds = 1
Dangerous builds = 0
min_style quickmin
minimize 0.0 1e-06 20000 100000
WARNING: Resetting reneighboring criteria during minimization (/tmp/dan/spack-stage/spack-stage-5I_aA6/lammps-feature-CORESHELL-pol/src/min.cpp:168)
Memory usage per processor = 9.02352 Mbytes
Step TotEng E_pair E_vdwl E_coul E_long E_bond Fnorm Lx Ly Lz Temp Press Pxx Pyy Pzz 
    6824   -114.37336   -117.51834    16.068463    -133.5868            0    3.1585541 9.9518508e-07         4.01         4.01     1.890145            0   -115606.06   -173265.01   -173417.64   -135.54758 
    6825   -114.37336   -117.51834    16.068463    -133.5868            0    3.1585541 9.9518507e-07         4.01         4.01     1.890145 7.7047509e-13   -115606.06   -173265.01   -173417.64   -135.54758 
Loop time of 0.0166546 on 8 procs for 1 steps with 10 atoms

12.0% CPU use with 8 MPI tasks x no OpenMP threads

Minimization stats:
  Stopping criterion = force tolerance
  Energy initial, next-to-last, final = 
        -114.373362708     -114.373362708     -114.373362708
  Force two-norm initial, final = 9.95185e-07 9.95185e-07
  Force max component initial, final = 3.48474e-07 3.48474e-07
  Final line search alpha, max atom move = 0 0
  Iterations, force evaluations = 1 1

MPI task timing breakdown:
Section |  min time  |  avg time  |  max time  |%varavg| %total
---------------------------------------------------------------
Pair    | 9.535e-06  | 0.00077473 | 0.0051749  |   6.0 |  4.65
Bond    | 1.248e-06  | 3.5424e-06 | 1.0615e-05 |   0.2 |  0.02
Neigh   | 0          | 0          | 0          |   0.0 |  0.00
Comm    | 0.0010715  | 0.0073417  | 0.0091141  |   3.4 | 44.08
Output  | 0          | 0          | 0          |   0.0 |  0.00
Modify  | 1.583e-06  | 3.2409e-06 | 4.653e-06  |   0.1 |  0.02
Other   |            | 0.008531   |            |       | 51.23

Nlocal:    1.25 ave 4 max 0 min
Histogram: 4 0 0 0 0 3 0 0 0 1
Nghost:    808.75 ave 810 max 806 min
Histogram: 1 0 0 0 0 3 0 0 0 4
Neighs:    332.125 ave 1702 max 0 min
Histogram: 5 1 0 1 0 0 0 0 0 1

Total # of neighbors = 2657
Ave neighs/atom = 265.7
Ave special neighs/atom = 1
Neighbor list builds = 0
Dangerous builds = 0
unfix ef
fix ef all efield -0.0057735026919 -0.0057735026919 -0.0057735026919
fix_modify ef energy yes
min_style fire
minimize 0.0 1e-06 20000 100000
WARNING: Resetting reneighboring criteria during minimization (/tmp/dan/spack-stage/spack-stage-5I_aA6/lammps-feature-CORESHELL-pol/src/min.cpp:168)
Memory usage per processor = 9.02352 Mbytes
Step TotEng E_pair E_vdwl E_coul E_long E_bond Fnorm Lx Ly Lz Temp Press Pxx Pyy Pzz 
    6825   -114.38694   -117.51834    16.068463    -133.5868            0    3.1585541  0.045369408         4.01         4.01     1.890145            0   -115606.06   -173265.01   -173417.64   -135.54758 
    6850   -114.38692   -117.52364    16.080012   -133.60365            0     3.163878  0.033487279         4.01         4.01     1.890145  0.022437113    -115013.2   -172573.89   -172727.64    261.93876 
    6900   -114.38695     -117.525    16.080429   -133.60543            0    3.1652429  0.017019801         4.01         4.01     1.890145 0.0019433851   -115101.06   -172614.37   -172768.67    79.871496 
    6950   -114.38696   -117.52496    16.081981   -133.60694            0    3.1652141  0.010431649         4.01         4.01     1.890145 0.00068614091   -115016.64   -172523.78   -172677.31    151.16087 
    7000   -114.38696    -117.5255    16.082668   -133.60817            0    3.1657612  0.009046713         4.01         4.01     1.890145 0.0047046328   -115044.59   -172524.57    -172676.2    66.991767 
    7050   -114.38696    -117.5252    16.083402    -133.6086            0    3.1654664 0.0079793411         4.01         4.01     1.890145 0.00016519848    -114999.7   -172482.52   -172631.48    114.89091 
    7100   -114.38696   -117.52665     16.08242   -133.60907            0     3.166926  0.020041559         4.01         4.01     1.890145 0.0020392658    -115178.6   -172579.45   -172754.06   -202.29798 
    7150   -114.38696   -117.52645    16.082865   -133.60932            0    3.1667295  0.013782093         4.01         4.01     1.890145 0.0013596163   -115155.96   -172563.92   -172736.92   -167.04608 
    7200   -114.38697   -117.52587    16.083647   -133.60951            0    3.1661454   0.00468302         4.01         4.01     1.890145 3.4469354e-05    -115083.6   -172525.32   -172670.84   -54.639468 
    7250   -114.38697   -117.52608    16.083646   -133.60972            0     3.166361 0.0042732675         4.01         4.01     1.890145 0.00020561825   -115113.23   -172527.99   -172696.85   -114.84351 
    7300   -114.38697   -117.52608    16.083727   -133.60981            0     3.166371  0.003473326         4.01         4.01     1.890145 0.00013293471   -115118.56   -172533.21   -172696.83   -125.63785 
    7350   -114.38697   -117.52611     16.08384   -133.60995            0    3.1664009 0.0029259141         4.01         4.01     1.890145 4.5862868e-06   -115124.04   -172551.02   -172683.07   -138.03754 
    7400   -114.38697    -117.5262    16.083919   -133.61012            0     3.166489 0.0043427388         4.01         4.01     1.890145 9.857187e-07   -115135.27   -172578.51   -172663.52   -163.77534 
    7450   -114.38697   -117.52623    16.083913   -133.61014            0    3.1665204 0.0034520905         4.01         4.01     1.890145 4.7931264e-07   -115144.28   -172576.88   -172675.71   -180.23704 
    7500   -114.38697   -117.52626    16.083933   -133.61019            0    3.1665572 0.0027343734         4.01         4.01     1.890145 8.3868663e-05   -115150.78   -172574.84   -172684.89   -192.60807 
    7550   -114.38697    -117.5263    16.083964   -133.61026            0    3.1665927 0.0016444549         4.01         4.01     1.890145 5.2380222e-05   -115155.38   -172555.34   -172708.23   -202.56885 
    7600   -114.38697   -117.52634    16.084013   -133.61035            0    3.1666332 0.0014365919         4.01         4.01     1.890145 1.7733437e-05   -115159.07    -172564.8   -172701.16   -211.26358 
    7650   -114.38697   -117.52637    16.084049   -133.61042            0    3.1666674 0.0011811173         4.01         4.01     1.890145 2.5877238e-06   -115163.51   -172563.43    -172705.2   -221.90238 
    7700   -114.38697   -117.52639    16.084079   -133.61047            0    3.1666952 0.0011077378         4.01         4.01     1.890145 5.5240872e-06   -115167.26    -172569.1   -172702.41   -230.28489 
    7750   -114.38697   -117.52641    16.084093    -133.6105            0    3.1667115 0.0012596195         4.01         4.01     1.890145 6.8511572e-06   -115170.32    -172557.7   -172716.87   -236.37859 
    7800   -114.38697   -117.52642    16.084098   -133.61052            0    3.1667256 0.00091825195         4.01         4.01     1.890145 4.0176806e-06   -115173.02   -172562.94   -172714.53   -241.58209 
    7850   -114.38697   -117.52643    16.084108   -133.61054            0    3.1667362 0.00081636998         4.01         4.01     1.890145 2.9567084e-06   -115174.66   -172564.43   -172714.58   -244.97229 
    7900   -114.38697   -117.52645    16.084125   -133.61057            0    3.1667505 0.0005677169         4.01         4.01     1.890145 1.6347511e-08   -115176.08   -172567.47   -172712.03   -248.75516 
    7950   -114.38697   -117.52645    16.084132   -133.61059            0    3.1667583 0.00057901474         4.01         4.01     1.890145 2.1049589e-06   -115177.42   -172567.07   -172713.64   -251.56334 
    8000   -114.38697   -117.52646     16.08414    -133.6106            0    3.1667669 0.00080899876         4.01         4.01     1.890145 4.1742024e-07   -115178.67   -172564.88   -172716.99   -254.11878 
    8050   -114.38697   -117.52647    16.084153   -133.61063            0    3.1667774 0.00044120076         4.01         4.01     1.890145 1.2926854e-06   -115179.66    -172573.1   -172709.14   -256.72741 
    8100   -114.38697   -117.52648    16.084157   -133.61063            0    3.1667815 0.00037359687         4.01         4.01     1.890145 1.0452853e-06   -115180.38   -172569.73   -172713.21   -258.21076 
    8150   -114.38697   -117.52648    16.084165   -133.61065            0    3.1667889 0.00072371551         4.01         4.01     1.890145 4.8162715e-07   -115181.27   -172566.27   -172717.21   -260.33092 
    8200   -114.38697   -117.52649    16.084171   -133.61066            0    3.1667942 0.00026859031         4.01         4.01     1.890145 2.9767076e-07   -115181.78   -172573.18   -172710.61   -261.55184 
    8250   -114.38697   -117.52649    16.084177   -133.61067            0    3.1667989 0.00026580454         4.01         4.01     1.890145 5.1440413e-07   -115182.34   -172571.05   -172712.99   -262.98244 
    8300   -114.38697    -117.5265    16.084182   -133.61068            0    3.1668038 0.00021588616         4.01         4.01     1.890145 4.3116519e-07   -115182.89   -172571.89   -172712.47   -264.28999 
    8350   -114.38697    -117.5265    16.084185   -133.61069            0    3.1668065 0.00018429758         4.01         4.01     1.890145 1.5491849e-07   -115183.25   -172572.37   -172712.27   -265.12437 
    8400   -114.38697    -117.5265    16.084188   -133.61069            0    3.1668088 0.00015746925         4.01         4.01     1.890145 1.9731122e-07   -115183.47   -172574.06   -172710.64   -265.70694 
    8450   -114.38697   -117.52651    16.084193    -133.6107            0    3.1668124 0.00012468084         4.01         4.01     1.890145 9.4478741e-08   -115183.81   -172573.35   -172711.49   -266.59714 
    8500   -114.38697   -117.52651    16.084196    -133.6107            0    3.1668148 0.00010525768         4.01         4.01     1.890145 8.9012483e-08   -115184.03   -172573.95   -172710.94   -267.21208 
    8550   -114.38697   -117.52651      16.0842   -133.61071            0    3.1668178 9.4973946e-05         4.01         4.01     1.890145 1.1224467e-10   -115184.33   -172574.38   -172710.66   -267.96166 
    8600   -114.38697   -117.52651    16.084203   -133.61072            0      3.16682 8.7297007e-05         4.01         4.01     1.890145 3.7248119e-09   -115184.51   -172574.61    -172710.4   -268.52076 
    8650   -114.38697   -117.52651    16.084205   -133.61072            0    3.1668212 9.049163e-05         4.01         4.01     1.890145 5.6874411e-08   -115184.67   -172574.96   -172710.16   -268.88483 
    8700   -114.38697   -117.52652    16.084205   -133.61072            0    3.1668222 6.4074209e-05         4.01         4.01     1.890145 5.4593333e-08   -115184.82    -172574.3   -172710.94   -269.21648 
    8750   -114.38697   -117.52652    16.084206   -133.61072            0    3.1668233 6.3869798e-05         4.01         4.01     1.890145 9.9753242e-08   -115184.98   -172574.43    -172710.9   -269.59553 
    8800   -114.38697   -117.52652    16.084207   -133.61072            0    3.1668241 6.8880855e-05         4.01         4.01     1.890145 6.7942118e-08    -115185.1   -172574.48   -172710.95   -269.86622 
    8850   -114.38697   -117.52652    16.084208   -133.61073            0    3.1668248 6.3250177e-05         4.01         4.01     1.890145 3.1403615e-08   -115185.15   -172575.45   -172709.99   -270.00496 
    8900   -114.38697   -117.52652    16.084209   -133.61073            0    3.1668257 5.3542975e-05         4.01         4.01     1.890145 4.0853556e-08   -115185.22   -172575.52   -172709.95    -270.2028 
    8950   -114.38697   -117.52652     16.08421   -133.61073            0    3.1668261 3.2231905e-05         4.01         4.01     1.890145 2.993735e-08   -115185.29   -172575.38   -172710.14     -270.345 
    9000   -114.38697   -117.52652    16.084211   -133.61073            0    3.1668268 2.9811724e-05         4.01         4.01     1.890145 4.1250631e-11   -115185.35   -172575.26   -172710.26   -270.51642 
    9050   -114.38697   -117.52652    16.084211   -133.61073            0    3.1668272 3.8926747e-05         4.01         4.01     1.890145 1.981826e-08   -115185.39   -172575.21   -172710.34   -270.62375 
    9100   -114.38697   -117.52652    16.084212   -133.61073            0    3.1668276 4.2246907e-05         4.01         4.01     1.890145 2.2973892e-10   -115185.41   -172575.27   -172710.27   -270.70349 
    9150   -114.38697   -117.52652    16.084212   -133.61073            0     3.166828 1.6065615e-05         4.01         4.01     1.890145 1.3315673e-08   -115185.46   -172575.71   -172709.85   -270.80803 
    9200   -114.38697   -117.52652    16.084212   -133.61073            0    3.1668282 1.4655601e-05         4.01         4.01     1.890145 8.6317191e-10   -115185.49   -172575.74   -172709.85   -270.87936 
    9250   -114.38697   -117.52652    16.084213   -133.61073            0    3.1668286 1.2881582e-05         4.01         4.01     1.890145 1.4803219e-09   -115185.52   -172575.83   -172709.76   -270.96615 
    9300   -114.38697   -117.52652    16.084213   -133.61074            0    3.1668288 1.2129991e-05         4.01         4.01     1.890145 1.9201578e-09   -115185.55   -172575.92   -172709.68    -271.0416 
    9350   -114.38697   -117.52652    16.084213   -133.61074            0    3.1668289 1.0250125e-05         4.01         4.01     1.890145 1.8292233e-09   -115185.57   -172576.01   -172709.61   -271.08618 
    9400   -114.38697   -117.52652    16.084214   -133.61074            0    3.1668291 1.5455198e-05         4.01         4.01     1.890145 1.4475716e-09   -115185.58   -172576.25   -172709.38   -271.11812 
    9450   -114.38697   -117.52652    16.084214   -133.61074            0    3.1668293 1.4900038e-05         4.01         4.01     1.890145 1.2227611e-09   -115185.61   -172576.12   -172709.52   -271.19256 
    9500   -114.38697   -117.52652    16.084214   -133.61074            0    3.1668294 1.2221436e-05         4.01         4.01     1.890145 1.152906e-09   -115185.62    -172576.4   -172709.24   -271.20526 
    9550   -114.38697   -117.52652    16.084214   -133.61074            0    3.1668295 6.1362326e-06         4.01         4.01     1.890145 7.9725859e-10   -115185.62   -172576.39   -172709.25   -271.22737 
    9600   -114.38697   -117.52652    16.084214   -133.61074            0    3.1668296 4.8890747e-06         4.01         4.01     1.890145 1.5967728e-11   -115185.64   -172576.44   -172709.21   -271.25936 
    9650   -114.38697   -117.52652    16.084214   -133.61074            0    3.1668297 4.6916274e-06         4.01         4.01     1.890145 7.9562415e-11   -115185.64   -172576.55    -172709.1    -271.2811 
    9700   -114.38697   -117.52652    16.084215   -133.61074            0    3.1668298 4.8057573e-06         4.01         4.01     1.890145 9.5742743e-11   -115185.65   -172576.57   -172709.08   -271.30666 
    9750   -114.38697   -117.52652    16.084215   -133.61074            0    3.1668298 4.7438671e-06         4.01         4.01     1.890145 1.0347015e-10   -115185.66   -172576.69   -172708.96   -271.31252 
    9800   -114.38697   -117.52652    16.084215   -133.61074            0    3.1668299 3.9825496e-06         4.01         4.01     1.890145 1.0979993e-10   -115185.66   -172576.73   -172708.92    -271.3232 
    9850   -114.38697   -117.52652    16.084215   -133.61074            0    3.1668299 2.9942039e-06         4.01         4.01     1.890145 7.4821455e-11   -115185.67   -172576.79   -172708.87   -271.34016 
    9900   -114.38697   -117.52652    16.084215   -133.61074            0      3.16683 3.3410139e-06         4.01         4.01     1.890145 7.3033961e-13   -115185.67   -172576.87   -172708.78   -271.35059 
    9950   -114.38697   -117.52652    16.084215   -133.61074            0      3.16683 3.7971596e-06         4.01         4.01     1.890145 4.4619729e-11   -115185.67   -172576.95   -172708.71   -271.35786 
   10000   -114.38697   -117.52652    16.084215   -133.61074            0      3.16683 2.8329827e-06         4.01         4.01     1.890145 2.0294685e-10   -115185.68   -172576.96    -172708.7   -271.37241 
   10050   -114.38697   -117.52652    16.084215   -133.61074            0    3.1668301 2.2208617e-06         4.01         4.01     1.890145 5.2248698e-12   -115185.68   -172577.01   -172708.66   -271.37232 
   10100   -114.38697   -117.52652    16.084215   -133.61074            0    3.1668301 2.3202155e-06         4.01         4.01     1.890145 1.3078047e-11   -115185.68   -172577.07   -172708.59   -271.37464 
   10150   -114.38697   -117.52652    16.084215   -133.61074            0    3.1668301 2.0367905e-06         4.01         4.01     1.890145 6.2214602e-12   -115185.68    -172577.1   -172708.56   -271.37958 
   10200   -114.38697   -117.52652    16.084215   -133.61074            0    3.1668301 2.0339628e-06         4.01         4.01     1.890145 6.4406458e-12   -115185.68   -172577.16    -172708.5   -271.38225 
   10250   -114.38697   -117.52652    16.084215   -133.61074            0    3.1668301 2.3165924e-06         4.01         4.01     1.890145 1.6444782e-11   -115185.68   -172577.22   -172708.44   -271.38547 
   10300   -114.38697   -117.52652    16.084215   -133.61074            0    3.1668301 2.9205362e-06         4.01         4.01     1.890145 3.0967109e-11   -115185.68   -172577.27    -172708.4   -271.38654 
   10350   -114.38697   -117.52652    16.084215   -133.61074            0    3.1668301 1.8019001e-06         4.01         4.01     1.890145 1.4215686e-11   -115185.68   -172577.29   -172708.37   -271.38896 
   10400   -114.38697   -117.52652    16.084215   -133.61074            0    3.1668301 6.2736251e-06         4.01         4.01     1.890145 1.7023899e-10   -115185.68   -172577.37    -172708.3   -271.38689 
   10450   -114.38697   -117.52652    16.084215   -133.61074            0    3.1668301 3.1746265e-06         4.01         4.01     1.890145 1.9212534e-11   -115185.68   -172577.38   -172708.28   -271.39077 
   10500   -114.38697   -117.52652    16.084215   -133.61074            0    3.1668301 3.5697814e-06         4.01         4.01     1.890145 8.2126512e-11   -115185.69   -172577.43   -172708.24   -271.39218 
   10550   -114.38697   -117.52652    16.084215   -133.61074            0    3.1668301 1.4883531e-06         4.01         4.01     1.890145 2.4087857e-13   -115185.69   -172577.43   -172708.23   -271.39379 
   10600   -114.38697   -117.52652    16.084215   -133.61074            0    3.1668302 1.5940132e-06         4.01         4.01     1.890145 4.7600864e-11   -115185.69   -172577.47   -172708.19   -271.39375 
   10650   -114.38697   -117.52652    16.084215   -133.61074            0    3.1668302 3.2428926e-06         4.01         4.01     1.890145 5.1067555e-11   -115185.69   -172577.47   -172708.19    -271.3985 
   10700   -114.38697   -117.52652    16.084215   -133.61074            0    3.1668302 1.3885036e-06         4.01         4.01     1.890145 1.0987965e-11   -115185.69   -172577.53   -172708.14   -271.39515 
   10750   -114.38697   -117.52652    16.084215   -133.61074            0    3.1668302 1.7396235e-06         4.01         4.01     1.890145 1.072378e-11   -115185.69   -172577.56    -172708.1   -271.39514 
   10781   -114.38697   -117.52652    16.084215   -133.61074            0    3.1668302 9.8969526e-07         4.01         4.01     1.890145 2.7584514e-11   -115185.69   -172577.56    -172708.1   -271.39642 
Loop time of 12.5488 on 8 procs for 3956 steps with 10 atoms

26.4% CPU use with 8 MPI tasks x no OpenMP threads

Minimization stats:
  Stopping criterion = force tolerance
  Energy initial, next-to-last, final = 
        -114.386938384     -114.386969673     -114.386969673
  Force two-norm initial, final = 0.0453694 9.89695e-07
  Force max component initial, final = 0.0145553 3.70332e-07
  Final line search alpha, max atom move = 0 0
  Iterations, force evaluations = 3956 3956

MPI task timing breakdown:
Section |  min time  |  avg time  |  max time  |%varavg| %total
---------------------------------------------------------------
Pair    | 0.0097445  | 0.68556    | 3.5368     | 136.7 |  5.46
Bond    | 0.0029004  | 0.0041578  | 0.0064008  |   1.9 |  0.03
Neigh   | 0          | 0          | 0          |   0.0 |  0.00
Comm    | 5.8625     | 8.837      | 10.324     |  50.5 | 70.42
Output  | 0.055726   | 0.05925    | 0.069007   |   1.6 |  0.47
Modify  | 0.0040155  | 0.0066013  | 0.0092842  |   2.2 |  0.05
Other   |            | 2.956      |            |       | 23.56

Nlocal:    1.25 ave 4 max 0 min
Histogram: 4 0 0 0 0 3 0 0 0 1
Nghost:    808.75 ave 810 max 806 min
Histogram: 1 0 0 0 0 3 0 0 0 4
Neighs:    332.125 ave 1702 max 0 min
Histogram: 5 1 0 1 0 0 0 0 0 1

Total # of neighbors = 2657
Ave neighs/atom = 265.7
Ave special neighs/atom = 1
Neighbor list builds = 0
Dangerous builds = 0
min_style quickmin
minimize 0.0 1e-06 20000 100000
WARNING: Resetting reneighboring criteria during minimization (/tmp/dan/spack-stage/spack-stage-5I_aA6/lammps-feature-CORESHELL-pol/src/min.cpp:168)
Memory usage per processor = 9.02352 Mbytes
Step TotEng E_pair E_vdwl E_coul E_long E_bond Fnorm Lx Ly Lz Temp Press Pxx Pyy Pzz 
   10781   -114.38697   -117.52652    16.084215   -133.61074            0    3.1668302 9.8969519e-07         4.01         4.01     1.890801            0   -115145.72   -172517.69   -172648.18   -271.30227 
   10782   -114.38697   -117.52652    16.084215   -133.61074            0    3.1668302 9.8969518e-07         4.01         4.01     1.890801 4.9049322e-13   -115145.72   -172517.69   -172648.18   -271.30227 
Loop time of 0.00774294 on 8 procs for 1 steps with 10 atoms

32.3% CPU use with 8 MPI tasks x no OpenMP threads

Minimization stats:
  Stopping criterion = force tolerance
  Energy initial, next-to-last, final = 
        -114.386969673     -114.386969673     -114.386969673
  Force two-norm initial, final = 9.89695e-07 9.89695e-07
  Force max component initial, final = 3.70331e-07 3.70331e-07
  Final line search alpha, max atom move = 0 0
  Iterations, force evaluations = 1 1

MPI task timing breakdown:
Section |  min time  |  avg time  |  max time  |%varavg| %total
---------------------------------------------------------------
Pair    | 1.4653e-05 | 0.00033951 | 0.0015996  |   2.7 |  4.38
Bond    | 3.078e-06  | 5.3586e-06 | 9.276e-06  |   0.1 |  0.07
Neigh   | 0          | 0          | 0          |   0.0 |  0.00
Comm    | 0.0041614  | 0.0058814  | 0.006458   |   1.1 | 75.96
Output  | 0          | 0          | 0          |   0.0 |  0.00
Modify  | 3.515e-06  | 5.9464e-06 | 8.148e-06  |   0.1 |  0.08
Other   |            | 0.001511   |            |       | 19.51

Nlocal:    1.25 ave 4 max 0 min
Histogram: 4 0 0 0 0 3 0 0 0 1
Nghost:    808.75 ave 810 max 806 min
Histogram: 1 0 0 0 0 3 0 0 0 4
Neighs:    332 ave 1701 max 0 min
Histogram: 5 1 0 1 0 0 0 0 0 1

Total # of neighbors = 2656
Ave neighs/atom = 265.6
Ave special neighs/atom = 1
Neighbor list builds = 0
Dangerous builds = 0
unfix ef
fix ef all efield -0.00866025403784 -0.00866025403784 -0.00866025403784
fix_modify ef energy yes
min_style fire
minimize 0.0 1e-06 20000 100000
WARNING: Resetting reneighboring criteria during minimization (/tmp/dan/spack-stage/spack-stage-5I_aA6/lammps-feature-CORESHELL-pol/src/min.cpp:168)
Memory usage per processor = 9.02352 Mbytes
Step TotEng E_pair E_vdwl E_coul E_long E_bond Fnorm Lx Ly Lz Temp Press Pxx Pyy Pzz 
   10782   -114.40061   -117.52652    16.084215   -133.61074            0    3.1668302  0.045369422         4.01         4.01     1.890801            0   -115145.72   -172517.69   -172648.18   -271.30227 
   10800    -114.4006   -117.52933    16.089554   -133.61889            0    3.1696628  0.018816052         4.01         4.01     1.890801 0.0088033441   -114894.66   -172280.77   -172412.51    9.2860773 
   10850   -114.40062   -117.53186    16.097112   -133.62897            0    3.1722224  0.013304324         4.01         4.01     1.890801 0.0002904622   -114497.25   -171770.56   -171901.32    180.13942 
   10900   -114.40063   -117.53279    16.097959   -133.63075            0    3.1731614  0.009615541         4.01         4.01     1.890801 0.00011547634   -114519.88    -171754.8   -171885.25    80.414031 
   10950   -114.40063    -117.5329    16.098618   -133.63151            0    3.1732801 0.0097927172         4.01         4.01     1.890801 0.0017401478   -114512.13    -171731.1   -171859.65     54.36205 
   11000   -114.40063   -117.53295    16.099572   -133.63252            0    3.1733452  0.013321713         4.01         4.01     1.890801 0.0012574165   -114487.83   -171689.67   -171806.07    32.254907 
   11050   -114.40063    -117.5342    16.098831   -133.63303            0    3.1746095 0.0094639781         4.01         4.01     1.890801 0.00065069625   -114640.04   -171796.34   -171943.82   -179.96447 
   11100   -114.40064   -117.53402    16.099201   -133.63322            0    3.1744291 0.0056013652         4.01         4.01     1.890801 0.00056246017   -114620.21    -171777.9   -171910.24   -172.48225 
   11150   -114.40064   -117.53432    16.099152   -133.63347            0    3.1747387 0.0081936846         4.01         4.01     1.890801 0.00091893492   -114662.29   -171786.75   -171981.57   -218.54936 
   11200   -114.40064   -117.53419    16.099358   -133.63355            0    3.1746142 0.0047718108         4.01         4.01     1.890801 0.00048249566   -114652.38   -171784.03   -171944.11    -228.9974 
   11250   -114.40064   -117.53419    16.099444   -133.63364            0    3.1746216 0.0034706314         4.01         4.01     1.890801 1.9288652e-05   -114658.07   -171795.94   -171924.82   -253.44519 
   11300   -114.40064   -117.53428    16.099565   -133.63385            0    3.1747197  0.003049918         4.01         4.01     1.890801 1.8972789e-05   -114667.73   -171794.91   -171931.61   -276.65796 
   11350   -114.40064   -117.53432    16.099591   -133.63392            0    3.1747628 0.0029896252         4.01         4.01     1.890801 4.2669057e-05   -114678.12   -171819.64   -171913.53   -301.17895 
   11400   -114.40064   -117.53436    16.099599   -133.63396            0    3.1747996 0.0022468956         4.01         4.01     1.890801 1.1104636e-05   -114685.68   -171811.23   -171933.83   -311.98949 
   11450   -114.40064   -117.53439    16.099632   -133.63402            0    3.1748327 0.0047941765         4.01         4.01     1.890801 1.7453771e-05   -114691.91   -171850.83   -171897.37   -327.54319 
   11500   -114.40064   -117.53442    16.099655   -133.63408            0    3.1748661 0.0028328822         4.01         4.01     1.890801 4.6586677e-06    -114696.7   -171836.23   -171918.94   -334.93287 
   11550   -114.40064   -117.53446    16.099696   -133.63416            0    3.1749084 0.0015179106         4.01         4.01     1.890801 4.2264177e-06    -114701.3   -171820.57   -171938.51   -344.82997 
   11600   -114.40064   -117.53448     16.09972    -133.6342            0    3.1749336 0.0015458347         4.01         4.01     1.890801 1.1012516e-05   -114705.23   -171829.49   -171933.53   -352.67971 
   11650   -114.40064    -117.5345    16.099733   -133.63423            0    3.1749528 0.0012311148         4.01         4.01     1.890801 8.1023098e-06   -114708.79   -171828.54   -171938.01   -359.82882 
   11700   -114.40064   -117.53453    16.099756   -133.63428            0    3.1749786 0.00097085313         4.01         4.01     1.890801 4.9366533e-09    -114712.3   -171823.43   -171945.84   -367.63678 
   11750   -114.40064   -117.53455    16.099781   -133.63433            0    3.1749991 0.00089643075         4.01         4.01     1.890801  1.96683e-06   -114714.43   -171829.71   -171940.65   -372.91459 
   11800   -114.40064   -117.53455    16.099793   -133.63435            0    3.1750097 0.00090700949         4.01         4.01     1.890801 7.261639e-06   -114716.27   -171832.23   -171939.67   -376.90781 
   11850   -114.40064   -117.53457     16.09981   -133.63438            0    3.1750271 0.00082748897         4.01         4.01     1.890801 3.3620518e-06   -114718.16   -171823.28   -171950.18   -381.02411 
   11900   -114.40064   -117.53458    16.099826   -133.63441            0    3.1750409 0.00064218078         4.01         4.01     1.890801 3.7596842e-06   -114719.84   -171832.28   -171942.07   -385.17769 
   11950   -114.40064    -117.5346    16.099839   -133.63444            0    3.1750562 0.0011422437         4.01         4.01     1.890801 2.9378118e-06   -114721.48    -171820.9   -171954.65   -388.89165 
   12000   -114.40064    -117.5346    16.099846   -133.63445            0    3.1750615 0.00044405887         4.01         4.01     1.890801 2.9158326e-08   -114722.42   -171831.81   -171944.43   -391.01596 
   12050   -114.40064   -117.53461    16.099855   -133.63447            0     3.175069 0.00039504797         4.01         4.01     1.890801 2.0482588e-06   -114723.24   -171832.02    -171944.6   -393.11142 
   12100   -114.40064   -117.53462    16.099865   -133.63448            0    3.1750787 0.00036170288         4.01         4.01     1.890801 1.6237951e-08   -114724.37   -171829.37   -171948.19   -395.55208 
   12150   -114.40064   -117.53462     16.09987   -133.63449            0    3.1750828 0.00028373929         4.01         4.01     1.890801 8.9867873e-08   -114724.91   -171830.41    -171947.4   -396.92521 
   12200   -114.40064   -117.53463    16.099873    -133.6345            0    3.1750858 0.0002537702         4.01         4.01     1.890801 2.822113e-08   -114725.36   -171830.67   -171947.43   -397.98285 
   12250   -114.40064   -117.53463    16.099881   -133.63451            0    3.1750915 0.00023430244         4.01         4.01     1.890801 2.0199975e-07    -114725.9   -171833.18   -171945.19   -399.32094 
   12300   -114.40064   -117.53463    16.099883   -133.63452            0     3.175094 0.00017528559         4.01         4.01     1.890801 5.4346647e-07   -114726.28   -171832.11   -171946.48   -400.26251 
   12350   -114.40064   -117.53464    16.099887   -133.63452            0    3.1750974 0.00016406281         4.01         4.01     1.890801 1.4352539e-07   -114726.59   -171832.22   -171946.56   -400.97878 
   12400   -114.40064   -117.53464    16.099894   -133.63454            0    3.1751022 0.00014029779         4.01         4.01     1.890801 1.684036e-07   -114726.85   -171832.79    -171945.8   -401.95581 
   12450   -114.40064   -117.53464    16.099896   -133.63454            0    3.1751044  0.000131903         4.01         4.01     1.890801 1.7904052e-08   -114727.24   -171833.33   -171945.57    -402.8087 
   12500   -114.40064   -117.53465    16.099899   -133.63455            0    3.1751071 0.00010547777         4.01         4.01     1.890801 1.6528663e-09   -114727.49   -171832.81   -171946.22   -403.44627 
   12550   -114.40064   -117.53465    16.099902   -133.63455            0    3.1751094 0.00016624605         4.01         4.01     1.890801 1.7733839e-09   -114727.71      -171832    -171947.1   -404.03852 
   12600   -114.40064   -117.53465    16.099904   -133.63455            0    3.1751108 8.7641448e-05         4.01         4.01     1.890801 1.7571844e-07   -114727.92   -171833.67   -171945.55   -404.53064 
   12650   -114.40064   -117.53465    16.099905   -133.63456            0    3.1751118 0.00010869266         4.01         4.01     1.890801 8.6736465e-10   -114728.07   -171834.29   -171945.09   -404.83658 
   12700   -114.40064   -117.53465    16.099907   -133.63456            0    3.1751128 0.0001239708         4.01         4.01     1.890801 1.3168449e-07   -114728.18   -171834.63   -171944.81     -405.091 
   12750   -114.40064   -117.53465    16.099908   -133.63456            0    3.1751145 5.3387549e-05         4.01         4.01     1.890801 3.2557008e-09   -114728.32   -171833.83   -171945.67   -405.47737 
   12800   -114.40064   -117.53465    16.099909   -133.63456            0    3.1751152 5.3030192e-05         4.01         4.01     1.890801 2.0699569e-08   -114728.41    -171833.7   -171945.81   -405.73469 
   12850   -114.40064   -117.53465     16.09991   -133.63456            0    3.1751161 4.1621078e-05         4.01         4.01     1.890801 5.3226303e-09    -114728.5   -171834.23   -171945.35     -405.921 
   12900   -114.40064   -117.53466    16.099912   -133.63457            0    3.1751171 6.366157e-05         4.01         4.01     1.890801 7.6272958e-10   -114728.59   -171833.79   -171945.81   -406.18931 
   12950   -114.40064   -117.53466    16.099912   -133.63457            0    3.1751178 4.0102831e-05         4.01         4.01     1.890801 2.0994379e-10   -114728.67   -171834.12   -171945.51   -406.38089 
   13000   -114.40064   -117.53466    16.099913   -133.63457            0    3.1751181 3.4258966e-05         4.01         4.01     1.890801 4.0756112e-09   -114728.74   -171834.26   -171945.44   -406.50769 
   13050   -114.40064   -117.53466    16.099913   -133.63457            0    3.1751185 2.2904447e-05         4.01         4.01     1.890801 1.3720073e-11   -114728.77   -171834.63   -171945.09   -406.60188 
   13100   -114.40064   -117.53466    16.099914   -133.63457            0     3.175119 3.477697e-05         4.01         4.01     1.890801 5.4271714e-11   -114728.81   -171834.93   -171944.78   -406.71652 
   13150   -114.40064   -117.53466    16.099914   -133.63457            0    3.1751193 2.4323592e-05         4.01         4.01     1.890801 4.4804348e-09   -114728.85   -171834.93   -171944.81   -406.81858 
   13200   -114.40064   -117.53466    16.099915   -133.63457            0    3.1751196 1.4018489e-05         4.01         4.01     1.890801 6.6570655e-10   -114728.88   -171834.87   -171944.88   -406.89346 
   13250   -114.40064   -117.53466    16.099915   -133.63457            0      3.17512 2.1145853e-05         4.01         4.01     1.890801 2.3427573e-09   -114728.92   -171835.11   -171944.67   -406.97905 
   13300   -114.40064   -117.53466    16.099915   -133.63457            0    3.1751202 1.0983759e-05         4.01         4.01     1.890801 2.8529743e-09   -114728.94   -171835.03   -171944.76   -407.04271 
   13350   -114.40064   -117.53466    16.099916   -133.63457            0    3.1751204 1.3562205e-05         4.01         4.01     1.890801 1.1387922e-10   -114728.97   -171835.06   -171944.73   -407.11712 
   13400   -114.40064   -117.53466    16.099916   -133.63457            0    3.1751206 7.876319e-06         4.01         4.01     1.890801 3.1181128e-10   -114728.98   -171835.21   -171944.59   -407.15428 
   13450   -114.40064   -117.53466    16.099916   -133.63457            0    3.1751207 1.0352575e-05         4.01         4.01     1.890801 4.0624441e-10      -114729   -171835.35   -171944.46   -407.17608 
   13500   -114.40064   -117.53466    16.099916   -133.63457            0    3.1751208 7.7971278e-06         4.01         4.01     1.890801 2.7714491e-10   -114729.01   -171835.31   -171944.51   -407.22031 
   13550   -114.40064   -117.53466    16.099916   -133.63458            0    3.1751209 5.8140229e-06         4.01         4.01     1.890801 2.7065247e-10   -114729.02   -171835.39   -171944.43   -407.24275 
   13600   -114.40064   -117.53466    16.099916   -133.63458            0    3.1751211 4.8073201e-06         4.01         4.01     1.890801 3.2829519e-10   -114729.03    -171835.5   -171944.33   -407.27382 
   13650   -114.40064   -117.53466    16.099917   -133.63458            0    3.1751211 4.0840282e-06         4.01         4.01     1.890801 4.8038169e-11   -114729.04   -171835.56   -171944.26   -407.29372 
   13700   -114.40064   -117.53466    16.099917   -133.63458            0    3.1751212 4.8223726e-06         4.01         4.01     1.890801 1.454431e-10   -114729.05   -171835.66   -171944.17   -407.31231 
   13750   -114.40064   -117.53466    16.099917   -133.63458            0    3.1751213 4.6508303e-06         4.01         4.01     1.890801 4.3202395e-11   -114729.05   -171835.72   -171944.11   -407.32871 
   13800   -114.40064   -117.53466    16.099917   -133.63458            0    3.1751213 5.0401607e-06         4.01         4.01     1.890801 2.3854121e-10   -114729.06   -171835.78   -171944.06   -407.34017 
   13850   -114.40064   -117.53466    16.099917   -133.63458            0    3.1751213 2.9506042e-06         4.01         4.01     1.890801 1.2273686e-10   -114729.06   -171835.79   -171944.05   -407.35091 
   13900   -114.40064   -117.53466    16.099917   -133.63458            0    3.1751214 3.0484082e-06         4.01         4.01     1.890801 1.3093833e-10   -114729.07   -171835.83   -171944.01   -407.36467 
   13950   -114.40064   -117.53466    16.099917   -133.63458            0    3.1751214 2.5541333e-06         4.01         4.01     1.890801 1.1205405e-10   -114729.07   -171835.87   -171943.96   -407.37045 
   14000   -114.40064   -117.53466    16.099917   -133.63458            0    3.1751214 2.8165545e-06         4.01         4.01     1.890801 9.2529883e-12   -114729.07   -171835.95   -171943.89   -407.37451 
   14050   -114.40064   -117.53466    16.099917   -133.63458            0    3.1751215 3.8741048e-06         4.01         4.01     1.890801 1.136028e-10   -114729.07      -171836   -171943.84   -407.37822 
   14100   -114.40064   -117.53466    16.099917   -133.63458            0    3.1751215 1.9973173e-06         4.01         4.01     1.890801 8.5568547e-11   -114729.08   -171836.04    -171943.8    -407.3898 
   14150   -114.40064   -117.53466    16.099917   -133.63458            0    3.1751215 1.9891225e-06         4.01         4.01     1.890801 1.006144e-11   -114729.08   -171836.08   -171943.76   -407.39316 
   14200   -114.40064   -117.53466    16.099917   -133.63458            0    3.1751215 3.0823469e-06         4.01         4.01     1.890801 6.4338619e-11   -114729.08    -171836.1   -171943.74   -407.40032 
   14250   -114.40064   -117.53466    16.099917   -133.63458            0    3.1751215 1.8034406e-06         4.01         4.01     1.890801 4.6261117e-11   -114729.08   -171836.15   -171943.69   -407.40057 
   14300   -114.40064   -117.53466    16.099917   -133.63458            0    3.1751216 4.8924412e-06         4.01         4.01     1.890801 1.2113643e-10   -114729.08   -171836.25   -171943.59   -407.39999 
   14350   -114.40064   -117.53466    16.099917   -133.63458            0    3.1751216 1.7705296e-06         4.01         4.01     1.890801 1.2909753e-11   -114729.08   -171836.25   -171943.59   -407.40416 
   14400   -114.40064   -117.53466    16.099917   -133.63458            0    3.1751216 1.6748684e-06         4.01         4.01     1.890801 5.5069946e-12   -114729.08   -171836.29   -171943.55   -407.40665 
   14450   -114.40064   -117.53466    16.099917   -133.63458            0    3.1751216 2.0324798e-06         4.01         4.01     1.890801 6.3280102e-13   -114729.08   -171836.34    -171943.5   -407.40948 
   14500   -114.40064   -117.53466    16.099917   -133.63458            0    3.1751216 1.4301506e-06         4.01         4.01     1.890801 1.5966736e-11   -114729.08   -171836.35    -171943.5   -407.40898 
   14550   -114.40064   -117.53466    16.099917   -133.63458            0    3.1751216 2.5507204e-06         4.01         4.01     1.890801 1.9682152e-11   -114729.08    -171836.4   -171943.44   -407.41075 
   14600   -114.40064   -117.53466    16.099917   -133.63458            0    3.1751216 1.5445024e-06         4.01         4.01     1.890801 8.6231796e-12   -114729.08   -171836.42   -171943.43   -407.41124 
   14650   -114.40064   -117.53466    16.099917   -133.63458            0    3.1751216 1.2136843e-06         4.01         4.01     1.890801 1.9398267e-11   -114729.08   -171836.44    -171943.4   -407.41195 
   14700   -114.40064   -117.53466    16.099917   -133.63458            0    3.1751216 1.1452224e-06         4.01         4.01     1.890801 2.5854721e-11   -114729.08   -171836.46   -171943.38    -407.4126 
   14750   -114.40064   -117.53466    16.099917   -133.63458            0    3.1751216 1.0909306e-06         4.01         4.01     1.890801 5.0014211e-12   -114729.08   -171836.49   -171943.36   -407.41293 
   14787   -114.40064   -117.53466    16.099917   -133.63458            0    3.1751216 9.8531503e-07         4.01         4.01     1.890801 1.7987353e-11   -114729.09   -171836.51   -171943.33    -407.4136 
Loop time of 14.0826 on 8 procs for 4005 steps with 10 atoms

24.4% CPU use with 8 MPI tasks x no OpenMP threads

Minimization stats:
  Stopping criterion = force tolerance
  Energy initial, next-to-last, final = 
         -114.40060785     -114.400638956     -114.400638956
  Force two-norm initial, final = 0.0453694 9.85315e-07
  Force max component initial, final = 0.0145554 3.72032e-07
  Final line search alpha, max atom move = 0 0
  Iterations, force evaluations = 4005 4005

MPI task timing breakdown:
Section |  min time  |  avg time  |  max time  |%varavg| %total
---------------------------------------------------------------
Pair    | 0.011489   | 0.74082    | 3.7271     | 138.7 |  5.26
Bond    | 0.003187   | 0.004965   | 0.010376   |   3.1 |  0.04
Neigh   | 0          | 0          | 0          |   0.0 |  0.00
Comm    | 5.6733     | 9.8915     | 11.559     |  62.9 | 70.24
Output  | 0.068007   | 0.07236    | 0.076919   |   1.3 |  0.51
Modify  | 0.0038904  | 0.006166   | 0.010602   |   2.8 |  0.04
Other   |            | 3.367      |            |       | 23.91

Nlocal:    1.25 ave 4 max 0 min
Histogram: 4 0 0 0 0 3 0 0 0 1
Nghost:    808.75 ave 810 max 806 min
Histogram: 1 0 0 0 0 3 0 0 0 4
Neighs:    332 ave 1701 max 0 min
Histogram: 5 1 0 1 0 0 0 0 0 1

Total # of neighbors = 2656
Ave neighs/atom = 265.6
Ave special neighs/atom = 1
Neighbor list builds = 0
Dangerous builds = 0
min_style quickmin
minimize 0.0 1e-06 20000 100000
WARNING: Resetting reneighboring criteria during minimization (/tmp/dan/spack-stage/spack-stage-5I_aA6/lammps-feature-CORESHELL-pol/src/min.cpp:168)
Memory usage per processor = 9.02352 Mbytes
Step TotEng E_pair E_vdwl E_coul E_long E_bond Fnorm Lx Ly Lz Temp Press Pxx Pyy Pzz 
   14787   -114.40064   -117.53466    16.099917   -133.63458            0    3.1751216 9.8531509e-07         4.01         4.01     1.891453            0   -114689.53   -171777.28   -171884.05   -407.27315 
   14788   -114.40064   -117.53466    16.099917   -133.63458            0    3.1751216 9.853151e-07         4.01         4.01     1.891453 6.8935678e-13   -114689.53   -171777.28   -171884.05   -407.27315 
Loop time of 0.0845891 on 8 procs for 1 steps with 10 atoms

16.0% CPU use with 8 MPI tasks x no OpenMP threads

Minimization stats:
  Stopping criterion = force tolerance
  Energy initial, next-to-last, final = 
        -114.400638956     -114.400638956     -114.400638956
  Force two-norm initial, final = 9.85315e-07 9.85315e-07
  Force max component initial, final = 3.72031e-07 3.72031e-07
  Final line search alpha, max atom move = 0 0
  Iterations, force evaluations = 1 1

MPI task timing breakdown:
Section |  min time  |  avg time  |  max time  |%varavg| %total
---------------------------------------------------------------
Pair    | 8.865e-06  | 0.00033203 | 0.0016045  |   2.8 |  0.39
Bond    | 1.256e-06  | 2.0005e-06 | 2.583e-06  |   0.0 |  0.00
Neigh   | 0          | 0          | 0          |   0.0 |  0.00
Comm    | 0.0021284  | 0.0037475  | 0.0045103  |   1.3 |  4.43
Output  | 0          | 0          | 0          |   0.0 |  0.00
Modify  | 1.704e-06  | 2.7459e-06 | 4.086e-06  |   0.1 |  0.00
Other   |            | 0.0805     |            |       | 95.17

Nlocal:    1.25 ave 4 max 0 min
Histogram: 4 0 0 0 0 3 0 0 0 1
Nghost:    808.75 ave 810 max 806 min
Histogram: 1 0 0 0 0 3 0 0 0 4
Neighs:    331.625 ave 1698 max 0 min
Histogram: 5 1 0 1 0 0 0 0 0 1

Total # of neighbors = 2653
Ave neighs/atom = 265.3
Ave special neighs/atom = 1
Neighbor list builds = 0
Dangerous builds = 0
unfix ef
fix ef all efield -0.0115470053838 -0.0115470053838 -0.0115470053838
fix_modify ef energy yes
min_style fire
minimize 0.0 1e-06 20000 100000
WARNING: Resetting reneighboring criteria during minimization (/tmp/dan/spack-stage/spack-stage-5I_aA6/lammps-feature-CORESHELL-pol/src/min.cpp:168)
Memory usage per processor = 9.02352 Mbytes
Step TotEng E_pair E_vdwl E_coul E_long E_bond Fnorm Lx Ly Lz Temp Press Pxx Pyy Pzz 
   14788   -114.41434   -117.53466    16.099917   -133.63458            0    3.1751216  0.045369422         4.01         4.01     1.891453            0   -114689.53   -171777.28   -171884.05   -407.27315 
   14800   -114.41434   -117.53861    16.105371   -133.64398            0    3.1791142  0.023076583         4.01         4.01     1.891453 0.0013512143   -114482.26   -171495.06   -171603.67   -348.06045 
   14850   -114.41435   -117.54036     16.11239   -133.65275            0     3.180899   0.01098314         4.01         4.01     1.891453 0.0014593276   -114093.94   -171068.18   -171175.57   -38.078979 
   14900   -114.41436   -117.54076    16.113757   -133.65452            0    3.1813169  0.010100463         4.01         4.01     1.891453 2.4176892e-06    -114049.2   -171005.07   -171111.36   -31.164584 
   14950   -114.41436    -117.5416    16.113746   -133.65535            0    3.1821714 0.0099445634         4.01         4.01     1.891453 0.00071188636   -114127.68   -171048.94    -171157.1   -177.01144 
   15000   -114.41436   -117.54211     16.11436   -133.65647            0    3.1827019   0.00997264         4.01         4.01     1.891453  0.000488795   -114153.54   -171052.84   -171167.01   -240.78202 
   15050   -114.41437   -117.54171    16.114979   -133.65669            0    3.1823093 0.0069841144         4.01         4.01     1.891453 0.00019626643   -114114.66    -171004.5   -171096.18   -243.30786 
   15100   -114.41437   -117.54192    16.114976    -133.6569            0    3.1825347 0.0055303665         4.01         4.01     1.891453 0.00019048937   -114145.21   -171025.85   -171120.14   -289.63219 
   15150   -114.41437   -117.54217    16.114938   -133.65711            0     3.182796 0.0047249352         4.01         4.01     1.891453 7.6813903e-07   -114182.94   -171050.48   -171166.22   -332.12374 
   15200   -114.41437   -117.54234    16.115041   -133.65738            0    3.1829726 0.0059240728         4.01         4.01     1.891453 1.491083e-06   -114204.24    -171048.5   -171208.92   -355.31783 
   15250   -114.41437   -117.54235     16.11508   -133.65743            0    3.1829921 0.0052504033         4.01         4.01     1.891453 0.00020449496    -114214.7   -171048.74   -171210.86     -384.493 
   15300   -114.41437   -117.54239    16.115211    -133.6576            0    3.1830282 0.0027857825         4.01         4.01     1.891453 0.00011823856   -114218.28   -171068.76   -171165.05   -421.01748 
   15350   -114.41437   -117.54244    16.115254   -133.65769            0    3.1830853 0.0023680168         4.01         4.01     1.891453 5.9927025e-05    -114228.8   -171077.57   -171167.82   -440.99908 
   15400   -114.41437   -117.54248    16.115285   -133.65777            0    3.1831344 0.0043319519         4.01         4.01     1.891453 0.00012383526   -114237.51   -171107.17   -171142.89   -462.46226 
   15450   -114.41437   -117.54251    16.115324   -133.65784            0    3.1831685 0.0033868394         4.01         4.01     1.891453 7.901572e-06   -114242.65   -171056.19   -171205.25   -466.49254 
   15500   -114.41437   -117.54254    16.115344   -133.65789            0    3.1832001 0.0017836063         4.01         4.01     1.891453 2.4889989e-05   -114247.38   -171073.62   -171190.77   -477.75598 
   15550   -114.41437   -117.54258    16.115379   -133.65796            0    3.1832401 0.0014117306         4.01         4.01     1.891453 6.4344433e-06   -114251.92   -171088.28   -171179.14   -488.35174 
   15600   -114.41437    -117.5426    16.115403     -133.658            0    3.1832631  0.001129253         4.01         4.01     1.891453 1.4929848e-05   -114255.39   -171083.89   -171186.22   -496.05349 
   15650   -114.41437   -117.54262    16.115415   -133.65803            0    3.1832808 0.0010273107         4.01         4.01     1.891453 6.5395458e-06   -114258.02   -171086.51   -171186.29   -501.26388 
   15700   -114.41437   -117.54264     16.11544   -133.65808            0    3.1833023 0.0010195295         4.01         4.01     1.891453 1.230927e-07   -114260.57   -171084.03   -171190.47   -507.21503 
   15750   -114.41437   -117.54265    16.115451    -133.6581            0    3.1833192 0.00099035781         4.01         4.01     1.891453 9.3037538e-08   -114263.66   -171096.33   -171180.99   -513.65844 
   15800   -114.41437   -117.54267    16.115471   -133.65814            0    3.1833378 0.0010129375         4.01         4.01     1.891453 4.2332857e-08    -114265.7   -171084.79   -171194.33   -517.96459 
   15850   -114.41437   -117.54267    16.115477   -133.65815            0    3.1833447 0.00058528482         4.01         4.01     1.891453 3.5425638e-06   -114266.72   -171093.44   -171186.47   -520.24271 
   15900   -114.41437   -117.54269    16.115483   -133.65817            0    3.1833595 0.0010913103         4.01         4.01     1.891453 7.5776827e-06   -114269.03   -171085.13   -171196.46    -525.4978 
   15950   -114.41437    -117.5427    16.115504    -133.6582            0    3.1833693 0.00043249626         4.01         4.01     1.891453 2.1871135e-08   -114269.42   -171092.82   -171188.54   -526.90064 
   16000   -114.41437   -117.54271    16.115519   -133.65822            0    3.1833795 0.0003498148         4.01         4.01     1.891453 1.4541711e-06   -114270.41   -171094.44   -171187.21    -529.5982 
   16050   -114.41437   -117.54271     16.11552   -133.65823            0    3.1833826 0.00078383859         4.01         4.01     1.891453 5.2126369e-06    -114271.4   -171088.54   -171194.41   -531.26334 
   16100   -114.41437   -117.54272    16.115529   -133.65825            0    3.1833909 0.00066429184         4.01         4.01     1.891453 2.3508734e-06    -114272.1   -171100.16   -171182.91   -533.21417 
   16150   -114.41437   -117.54272    16.115538   -133.65826            0    3.1833968 0.00066830721         4.01         4.01     1.891453 2.9870404e-06    -114272.7   -171100.82   -171182.59   -534.68635 
   16200   -114.41437   -117.54272    16.115539   -133.65826            0    3.1834004 0.00022485926         4.01         4.01     1.891453 1.8577125e-07   -114273.28   -171094.87   -171189.07   -535.89773 
   16250   -114.41437   -117.54273    16.115546   -133.65828            0    3.1834051 0.00020107777         4.01         4.01     1.891453 2.4495081e-08   -114273.65   -171096.75   -171187.22    -536.9718 
   16300   -114.41437   -117.54273    16.115547   -133.65828            0    3.1834065 0.00017497706         4.01         4.01     1.891453 2.3160915e-07   -114273.96   -171097.09   -171187.21   -537.56758 
   16350   -114.41437   -117.54273     16.11555   -133.65828            0      3.18341 0.00013921572         4.01         4.01     1.891453 1.8025518e-07   -114274.44   -171096.14   -171188.55   -538.62923 
   16400   -114.41437   -117.54274    16.115554   -133.65829            0    3.1834131 0.00011169064         4.01         4.01     1.891453 1.1516277e-07   -114274.68   -171097.01   -171187.75   -539.28886 
   16450   -114.41437   -117.54274    16.115555   -133.65829            0    3.1834149 0.00012299591         4.01         4.01     1.891453 1.9067453e-07   -114274.97   -171096.51   -171188.47   -539.92736 
   16500   -114.41437   -117.54274    16.115557    -133.6583            0    3.1834162 8.7988264e-05         4.01         4.01     1.891453 9.1322098e-08   -114275.12   -171097.21    -171187.9   -540.26123 
   16550   -114.41437   -117.54274    16.115559    -133.6583            0    3.1834179 7.9710884e-05         4.01         4.01     1.891453 1.1533584e-07   -114275.29   -171097.73   -171187.43   -540.72372 
   16600   -114.41437   -117.54274    16.115561    -133.6583            0    3.1834196 7.3649914e-05         4.01         4.01     1.891453 6.3067749e-11   -114275.45   -171097.41   -171187.85   -541.08972 
   16650   -114.41437   -117.54274    16.115563   -133.65831            0    3.1834209 6.4289794e-05         4.01         4.01     1.891453 6.739355e-10   -114275.57   -171098.09   -171187.16   -541.44149 
   16700   -114.41437   -117.54274    16.115565   -133.65831            0    3.1834225 5.5166136e-05         4.01         4.01     1.891453 1.0472208e-09    -114275.7   -171098.24   -171187.04   -541.80842 
   16750   -114.41437   -117.54275    16.115566   -133.65831            0    3.1834235 4.7211065e-05         4.01         4.01     1.891453 5.3077377e-09   -114275.82   -171098.01   -171187.36   -542.08292 
   16800   -114.41437   -117.54275    16.115566   -133.65831            0     3.183424 5.3000826e-05         4.01         4.01     1.891453 2.2834285e-09   -114275.91   -171098.01   -171187.41    -542.3052 
   16850   -114.41437   -117.54275    16.115567   -133.65831            0    3.1834247 5.0480495e-05         4.01         4.01     1.891453 5.6329028e-10   -114275.98   -171098.13   -171187.34   -542.47546 
   16900   -114.41437   -117.54275    16.115568   -133.65831            0    3.1834249 4.8266968e-05         4.01         4.01     1.891453 2.289695e-08   -114276.02   -171098.88   -171186.63   -542.55006 
   16950   -114.41437   -117.54275    16.115569   -133.65832            0    3.1834257 3.1206096e-05         4.01         4.01     1.891453 1.5818725e-10   -114276.09   -171098.52   -171187.01   -542.73087 
   17000   -114.41437   -117.54275    16.115569   -133.65832            0    3.1834261 2.2205835e-05         4.01         4.01     1.891453 7.8962166e-10   -114276.13   -171098.77   -171186.79   -542.83664 
   17050   -114.41437   -117.54275     16.11557   -133.65832            0    3.1834266 2.0017852e-05         4.01         4.01     1.891453 1.1073996e-08   -114276.17   -171098.95   -171186.61   -542.94958 
   17100   -114.41437   -117.54275     16.11557   -133.65832            0    3.1834271 1.7030376e-05         4.01         4.01     1.891453 3.260084e-10   -114276.21   -171099.06   -171186.52   -543.05767 
   17150   -114.41437   -117.54275    16.115571   -133.65832            0    3.1834274 1.5948262e-05         4.01         4.01     1.891453 1.6490246e-09   -114276.24    -171099.2   -171186.38   -543.13662 
   17200   -114.41437   -117.54275    16.115571   -133.65832            0    3.1834277 1.3375728e-05         4.01         4.01     1.891453 4.8825087e-09   -114276.27    -171099.2    -171186.4   -543.21777 
   17250   -114.41437   -117.54275    16.115571   -133.65832            0     3.183428 1.4167665e-05         4.01         4.01     1.891453 3.3509474e-09   -114276.29   -171099.25   -171186.34   -543.28524 
   17300   -114.41437   -117.54275    16.115572   -133.65832            0    3.1834281 1.2983315e-05         4.01         4.01     1.891453 9.0524348e-10   -114276.31   -171099.49   -171186.12   -543.31497 
   17350   -114.41437   -117.54275    16.115572   -133.65832            0    3.1834283 1.074237e-05         4.01         4.01     1.891453 4.9444242e-10   -114276.33   -171099.45   -171186.17   -543.38309 
   17400   -114.41437   -117.54275    16.115572   -133.65832            0    3.1834285 1.1411709e-05         4.01         4.01     1.891453 5.9636903e-10   -114276.35   -171099.68   -171185.95   -543.41177 
   17450   -114.41437   -117.54275    16.115572   -133.65832            0    3.1834286 6.9366145e-06         4.01         4.01     1.891453 1.5448322e-11   -114276.37   -171099.66   -171185.97   -543.46084 
   17500   -114.41437   -117.54275    16.115572   -133.65832            0    3.1834287 5.8715774e-06         4.01         4.01     1.891453 4.5362961e-10   -114276.37   -171099.77   -171185.87   -543.48163 
   17550   -114.41437   -117.54275    16.115573   -133.65832            0    3.1834289 4.8758097e-06         4.01         4.01     1.891453 4.0920819e-10   -114276.39   -171099.85   -171185.79   -543.51897 
   17600   -114.41437   -117.54275    16.115573   -133.65832            0    3.1834289 4.8012094e-06         4.01         4.01     1.891453 3.5990291e-10   -114276.39    -171099.9   -171185.74   -543.53968 
   17650   -114.41437   -117.54275    16.115573   -133.65832            0     3.183429 6.4749547e-06         4.01         4.01     1.891453 4.0581161e-10    -114276.4   -171100.04   -171185.61   -543.54882 
   17700   -114.41437   -117.54275    16.115573   -133.65832            0    3.1834291 6.3644509e-06         4.01         4.01     1.891453 2.2352078e-10   -114276.41   -171100.11   -171185.54   -543.56621 
   17750   -114.41437   -117.54275    16.115573   -133.65832            0    3.1834291 1.0063355e-05         4.01         4.01     1.891453 3.7161129e-12   -114276.41   -171100.21   -171185.45   -543.56906 
   17800   -114.41437   -117.54275    16.115573   -133.65832            0    3.1834292 5.4559154e-06         4.01         4.01     1.891453 7.9405012e-11   -114276.41   -171100.24   -171185.41   -543.59139 
   17850   -114.41437   -117.54275    16.115573   -133.65832            0    3.1834292 3.1822943e-06         4.01         4.01     1.891453 1.004833e-10   -114276.42   -171100.27   -171185.39   -543.60385 
   17900   -114.41437   -117.54275    16.115573   -133.65832            0    3.1834293 3.3853648e-06         4.01         4.01     1.891453 1.9444841e-10   -114276.43   -171100.32   -171185.34   -543.63229 
   17950   -114.41437   -117.54275    16.115573   -133.65832            0    3.1834293 2.6338643e-06         4.01         4.01     1.891453 1.7082956e-10   -114276.43    -171100.4   -171185.26   -543.62286 
   18000   -114.41437   -117.54275    16.115573   -133.65832            0    3.1834293 2.7274977e-06         4.01         4.01     1.891453 1.5662441e-10   -114276.43   -171100.44   -171185.21   -543.62418 
   18050   -114.41437   -117.54275    16.115573   -133.65832            0    3.1834293 2.287705e-06         4.01         4.01     1.891453 9.7400092e-12   -114276.43   -171100.51   -171185.15   -543.63412 
   18100   -114.41437   -117.54275    16.115573   -133.65832            0    3.1834294 2.8111456e-06         4.01         4.01     1.891453 1.2070764e-11   -114276.43   -171100.58   -171185.08   -543.64144 
   18150   -114.41437   -117.54275    16.115573   -133.65832            0    3.1834294 6.4793378e-06         4.01         4.01     1.891453 9.4780073e-12   -114276.43   -171100.58   -171185.08   -543.64717 
   18200   -114.41437   -117.54275    16.115573   -133.65832            0    3.1834294 6.1709333e-06         4.01         4.01     1.891453 3.013392e-12   -114276.43   -171100.73   -171184.93   -543.64061 
   18250   -114.41437   -117.54275    16.115573   -133.65832            0    3.1834294 1.7473931e-06         4.01         4.01     1.891453 1.1550412e-11   -114276.43   -171100.72   -171184.94   -543.64624 
   18300   -114.41437   -117.54275    16.115573   -133.65832            0    3.1834294 2.4273039e-06         4.01         4.01     1.891453 1.186523e-13   -114276.43   -171100.79   -171184.86   -543.64638 
   18350   -114.41437   -117.54275    16.115573   -133.65832            0    3.1834294 1.8285156e-06         4.01         4.01     1.891453 1.728814e-12   -114276.44   -171100.81   -171184.84   -543.64876 
   18400   -114.41437   -117.54275    16.115573   -133.65832            0    3.1834294 1.6328189e-06         4.01         4.01     1.891453 7.4981673e-13   -114276.44   -171100.85   -171184.81   -543.65032 
   18450   -114.41437   -117.54275    16.115573   -133.65832            0    3.1834294 1.4015217e-06         4.01         4.01     1.891453 1.1251581e-11   -114276.44   -171100.89   -171184.77   -543.65197 
   18500   -114.41437   -117.54275    16.115573   -133.65832            0    3.1834294 3.8855712e-06         4.01         4.01     1.891453 2.4165419e-12   -114276.44   -171100.89   -171184.77   -543.65496 
   18550   -114.41437   -117.54275    16.115573   -133.65832            0    3.1834294 1.6886606e-06         4.01         4.01     1.891453 8.7845269e-11   -114276.44   -171100.96    -171184.7   -543.65221 
   18600   -114.41437   -117.54275    16.115573   -133.65832            0    3.1834294 3.5421774e-06         4.01         4.01     1.891453 1.0270037e-10   -114276.44   -171100.96    -171184.7   -543.65513 
   18650   -114.41437   -117.54275    16.115573   -133.65832            0    3.1834294 1.3560161e-06         4.01         4.01     1.891453 1.8745466e-11   -114276.44   -171101.02   -171184.64   -543.65342 
   18700   -114.41437   -117.54275    16.115573   -133.65832            0    3.1834294 1.1653966e-06         4.01         4.01     1.891453 1.4663505e-11   -114276.44   -171101.04   -171184.62    -543.6538 
   18750   -114.41437   -117.54275    16.115573   -133.65832            0    3.1834294 1.0476058e-06         4.01         4.01     1.891453 1.3351516e-11   -114276.44   -171101.05    -171184.6   -543.65403 
   18800   -114.41437   -117.54275    16.115573   -133.65832            0    3.1834294 9.8531634e-07         4.01         4.01     1.891453 1.2172842e-11   -114276.44   -171101.08   -171184.58   -543.65429 
Loop time of 17.3972 on 8 procs for 4012 steps with 10 atoms

22.1% CPU use with 8 MPI tasks x no OpenMP threads

Minimization stats:
  Stopping criterion = force tolerance
  Energy initial, next-to-last, final = 
         -114.41433927     -114.414370202     -114.414370202
  Force two-norm initial, final = 0.0453694 9.85316e-07
  Force max component initial, final = 0.0145554 3.76424e-07
  Final line search alpha, max atom move = 0 0
  Iterations, force evaluations = 4012 4012

MPI task timing breakdown:
Section |  min time  |  avg time  |  max time  |%varavg| %total
---------------------------------------------------------------
Pair    | 0.012107   | 0.7549     | 3.7738     | 139.0 |  4.34
Bond    | 0.0033203  | 0.0052516  | 0.0071453  |   1.9 |  0.03
Neigh   | 0          | 0          | 0          |   0.0 |  0.00
Comm    | 7.0541     | 11.981     | 13.631     |  64.5 | 68.87
Output  | 0.068527   | 0.069586   | 0.073048   |   0.5 |  0.40
Modify  | 0.0043952  | 0.0073241  | 0.014169   |   3.5 |  0.04
Other   |            | 4.579      |            |       | 26.32

Nlocal:    1.25 ave 4 max 0 min
Histogram: 4 0 0 0 0 3 0 0 0 1
Nghost:    808.75 ave 810 max 806 min
Histogram: 1 0 0 0 0 3 0 0 0 4
Neighs:    331.625 ave 1698 max 0 min
Histogram: 5 1 0 1 0 0 0 0 0 1

Total # of neighbors = 2653
Ave neighs/atom = 265.3
Ave special neighs/atom = 1
Neighbor list builds = 0
Dangerous builds = 0
min_style quickmin
minimize 0.0 1e-06 20000 100000
WARNING: Resetting reneighboring criteria during minimization (/tmp/dan/spack-stage/spack-stage-5I_aA6/lammps-feature-CORESHELL-pol/src/min.cpp:168)
Memory usage per processor = 9.02352 Mbytes
Step TotEng E_pair E_vdwl E_coul E_long E_bond Fnorm Lx Ly Lz Temp Press Pxx Pyy Pzz 
   18800   -114.41437   -117.54275    16.115573   -133.65832            0    3.1834294 9.8531624e-07         4.01         4.01     1.892101            0    -114237.3   -171042.48   -171125.96    -543.4681 
   18801   -114.41437   -117.54275    16.115573   -133.65832            0    3.1834294 9.8531625e-07         4.01         4.01     1.892101 5.5845012e-13    -114237.3   -171042.48   -171125.96    -543.4681 
Loop time of 0.00708728 on 8 procs for 1 steps with 10 atoms

42.3% CPU use with 8 MPI tasks x no OpenMP threads

Minimization stats:
  Stopping criterion = force tolerance
  Energy initial, next-to-last, final = 
        -114.414370202     -114.414370202     -114.414370202
  Force two-norm initial, final = 9.85316e-07 9.85316e-07
  Force max component initial, final = 3.76424e-07 3.76424e-07
  Final line search alpha, max atom move = 0 0
  Iterations, force evaluations = 1 1

MPI task timing breakdown:
Section |  min time  |  avg time  |  max time  |%varavg| %total
---------------------------------------------------------------
Pair    | 9.766e-06  | 0.00035559 | 0.0015044  |   2.5 |  5.02
Bond    | 1.322e-06  | 2.7841e-06 | 3.518e-06  |   0.0 |  0.04
Neigh   | 0          | 0          | 0          |   0.0 |  0.00
Comm    | 0.004008   | 0.0049352  | 0.005575   |   0.7 | 69.63
Output  | 0          | 0          | 0          |   0.0 |  0.00
Modify  | 4.355e-06  | 7.3296e-06 | 1.1155e-05 |   0.1 |  0.10
Other   |            | 0.001786   |            |       | 25.21

Nlocal:    1.25 ave 4 max 0 min
Histogram: 4 0 0 0 0 3 0 0 0 1
Nghost:    808.75 ave 810 max 806 min
Histogram: 1 0 0 0 0 3 0 0 0 4
Neighs:    331.625 ave 1698 max 0 min
Histogram: 5 1 0 1 0 0 0 0 0 1

Total # of neighbors = 2653
Ave neighs/atom = 265.3
Ave special neighs/atom = 1
Neighbor list builds = 0
Dangerous builds = 0
unfix ef
fix ef all efield -0.0144337567297 -0.0144337567297 -0.0144337567297
fix_modify ef energy yes
min_style fire
minimize 0.0 1e-06 20000 100000
WARNING: Resetting reneighboring criteria during minimization (/tmp/dan/spack-stage/spack-stage-5I_aA6/lammps-feature-CORESHELL-pol/src/min.cpp:168)
Memory usage per processor = 9.02352 Mbytes
Step TotEng E_pair E_vdwl E_coul E_long E_bond Fnorm Lx Ly Lz Temp Press Pxx Pyy Pzz 
   18801   -114.42813   -117.54275    16.115573   -133.65832            0    3.1834294  0.045369417         4.01         4.01     1.892101            0    -114237.3   -171042.48   -171125.96    -543.4681 
   18850   -114.42814     -117.549    16.126991   -133.67599            0    3.1897752  0.016471221         4.01         4.01     1.892101 0.0027028639   -113733.91   -170420.93   -170506.25   -274.53764 
   18900   -114.42815   -117.54725    16.130764   -133.67802            0    3.1880514  0.032581293         4.01         4.01     1.892101 0.0042724139   -113407.52   -170123.08   -170201.43    101.95603 
   18950   -114.42815   -117.54895    16.129976   -133.67892            0     3.189767    0.0107767         4.01         4.01     1.892101 0.0010522114   -113592.28   -170250.34   -170331.17   -195.31764 
   19000   -114.42815   -117.54879    16.131053   -133.67984            0    3.1896314  0.017713401         4.01         4.01     1.892101 0.0021007005   -113543.89   -170181.66   -170254.88   -195.13266 
   19050   -114.42816   -117.55006    16.130145   -133.68021            0    3.1909154 0.0076135374         4.01         4.01     1.892101 0.00032027137   -113702.46   -170319.79    -170410.9   -376.70623 
   19100   -114.42816   -117.54989     16.13061    -133.6805            0    3.1907614 0.0064806474         4.01         4.01     1.892101 0.00016699918   -113684.89   -170282.77   -170349.57   -422.34077 
   19150   -114.42816   -117.55024    16.130416   -133.68066            0    3.1911219 0.0063773044         4.01         4.01     1.892101 0.00019360304   -113735.95   -170329.71   -170440.74   -437.40276 
   19200   -114.42816   -117.55025    16.130595   -133.68085            0    3.1911387 0.0045612104         4.01         4.01     1.892101 8.3255944e-05   -113738.48   -170320.64   -170421.93   -472.88612 
   19250   -114.42816   -117.55037    16.130604   -133.68097            0    3.1912645   0.00813761         4.01         4.01     1.892101 0.00061902795    -113757.2   -170310.23   -170487.26   -474.11426 
   19300   -114.42816   -117.55033    16.130807   -133.68114            0    3.1912382 0.0064129707         4.01         4.01     1.892101 0.00044369171    -113756.2   -170358.04   -170351.56    -558.9889 
   19350   -114.42816   -117.55044    16.130802   -133.68124            0    3.1913492 0.0032559896         4.01         4.01     1.892101 4.8596882e-05   -113772.26   -170326.56   -170436.23   -553.99401 
   19400   -114.42816   -117.55047    16.130827    -133.6813            0    3.1913881 0.0026088955         4.01         4.01     1.892101 3.6482537e-05   -113780.28   -170335.34   -170433.02   -572.46855 
   19450   -114.42816   -117.55052    16.130872   -133.68139            0    3.1914415 0.0020697752         4.01         4.01     1.892101 2.3322178e-08   -113788.36   -170352.42   -170420.02   -592.64991 
   19500   -114.42816   -117.55055    16.130919   -133.68147            0    3.1914734 0.0022310506         4.01         4.01     1.892101 2.5679621e-05   -113792.05   -170361.27   -170413.18    -601.6907 
   19550   -114.42816   -117.55059    16.130956   -133.68155            0    3.1915199 0.0016940851         4.01         4.01     1.892101 1.5353472e-05   -113797.51   -170345.58   -170434.71   -612.23809 
   19600   -114.42816   -117.55061    16.130971   -133.68158            0    3.1915453 0.0014131514         4.01         4.01     1.892101 1.0266746e-05   -113801.62    -170353.1   -170430.91   -620.84531 
   19650   -114.42816   -117.55065    16.131012   -133.68166            0     3.191582 0.0015984217         4.01         4.01     1.892101 1.6052073e-05   -113805.78   -170366.09   -170420.69   -630.55187 
   19700   -114.42816   -117.55067    16.131033    -133.6817            0    3.1916071 0.0010444304         4.01         4.01     1.892101 4.7940355e-06   -113809.11   -170355.84   -170433.39   -638.09137 
   19750   -114.42816   -117.55069    16.131067   -133.68176            0     3.191632 0.0017790763         4.01         4.01     1.892101 9.5668239e-07   -113811.69   -170345.23   -170445.22   -644.61454 
   19800   -114.42816    -117.5507     16.13106   -133.68176            0    3.1916409 0.0012958491         4.01         4.01     1.892101 1.6036735e-05   -113814.45   -170369.28   -170424.39   -649.69883 
   19850   -114.42816   -117.55071    16.131084    -133.6818            0    3.1916587 0.0007406811         4.01         4.01     1.892101 6.6624936e-06   -113815.92   -170358.23   -170436.34    -653.1869 
   19900   -114.42816   -117.55073    16.131096   -133.68182            0    3.1916712 0.00082264434         4.01         4.01     1.892101 1.2039622e-05   -113817.81    -170357.3   -170438.79   -657.33973 
   19950   -114.42816   -117.55074    16.131108   -133.68184            0    3.1916832 0.00075334964         4.01         4.01     1.892101 6.8574572e-06   -113819.26   -170367.64    -170429.4   -660.73569 
   20000   -114.42816   -117.55074    16.131119   -133.68186            0     3.191692 0.00091464642         4.01         4.01     1.892101 6.582587e-07   -113820.42   -170356.75   -170441.37   -663.13781 
   20050   -114.42816   -117.55075     16.13113   -133.68188            0    3.1917005 0.00071646711         4.01         4.01     1.892101 7.0224353e-06   -113821.29   -170369.37   -170429.16   -665.32869 
   20100   -114.42816   -117.55076    16.131136   -133.68189            0    3.1917084 0.00033469704         4.01         4.01     1.892101 3.5647988e-09   -113822.26   -170365.52   -170433.64   -667.61275 
   20150   -114.42816   -117.55076    16.131142   -133.68191            0    3.1917146 0.0002835746         4.01         4.01     1.892101 1.8579006e-08   -113823.11   -170364.56   -170435.29   -669.46887 
   20200   -114.42816   -117.55077    16.131148   -133.68192            0    3.1917202 0.0002413864         4.01         4.01     1.892101 2.9965307e-08   -113823.79   -170365.85    -170434.5   -671.01647 
   20250   -114.42816   -117.55077    16.131154   -133.68193            0     3.191725 0.00020187134         4.01         4.01     1.892101 1.7048429e-07   -113824.25   -170366.07   -170434.49   -672.18662 
   20300   -114.42816   -117.55078    16.131156   -133.68193            0    3.1917271 0.00018287768         4.01         4.01     1.892101 7.0595421e-08   -113824.65    -170365.9   -170435.06   -672.99713 
   20350   -114.42816   -117.55078     16.13116   -133.68194            0     3.191731 0.00016729479         4.01         4.01     1.892101 3.004406e-08   -113825.07   -170366.95   -170434.27   -673.97704 
   20400   -114.42816   -117.55078    16.131164   -133.68195            0    3.1917348 0.00015824849         4.01         4.01     1.892101 6.9669881e-08   -113825.45   -170366.11   -170435.36   -674.88325 
   20450   -114.42816   -117.55078    16.131167   -133.68195            0    3.1917375 0.00014540827         4.01         4.01     1.892101 3.2627117e-07   -113825.76   -170367.69   -170433.91   -675.66089 
   20500   -114.42816   -117.55079     16.13117   -133.68196            0    3.1917395 0.00011080807         4.01         4.01     1.892101 1.4045302e-07   -113825.97   -170367.71   -170434.01   -676.19706 
   20550   -114.42816   -117.55079    16.131173   -133.68196            0    3.1917421 0.0001073964         4.01         4.01     1.892101 1.7831563e-07   -113826.22   -170367.86   -170433.96   -676.82621 
   20600   -114.42816   -117.55079    16.131177   -133.68197            0    3.1917424 8.3353505e-05         4.01         4.01     1.892101 5.1485462e-08   -113826.21    -170367.2   -170434.54   -676.87657 
   20650   -114.42816   -117.55079    16.131178   -133.68197            0    3.1917458 6.3139208e-05         4.01         4.01     1.892101 1.6202894e-08   -113826.57   -170367.85   -170434.14   -677.72641 
   20700   -114.42816   -117.55079    16.131178   -133.68197            0    3.1917464 6.2489918e-05         4.01         4.01     1.892101 2.8222054e-08   -113826.71   -170367.74   -170434.39   -677.99345 
   20750   -114.42816   -117.55079    16.131179   -133.68197            0    3.1917477 9.2320547e-05         4.01         4.01     1.892101 7.7046852e-10   -113826.87   -170368.82    -170433.4   -678.38156 
   20800   -114.42816   -117.55079    16.131181   -133.68198            0    3.1917486 4.6149253e-05         4.01         4.01     1.892101 7.5867771e-09   -113826.95    -170368.2   -170434.07   -678.57838 
   20850   -114.42816    -117.5508    16.131182   -133.68198            0    3.1917492 0.00011606561         4.01         4.01     1.892101 3.0105117e-09      -113827   -170369.41   -170432.85    -678.7336 
   20900   -114.42816    -117.5508    16.131182   -133.68198            0    3.1917499 3.9097325e-05         4.01         4.01     1.892101   2.1925e-11    -113827.1   -170368.39   -170433.97   -678.93855 
   20950   -114.42816    -117.5508    16.131183   -133.68198            0    3.1917507 5.3361723e-05         4.01         4.01     1.892101 6.6605925e-09   -113827.17   -170368.33   -170434.06   -679.11015 
   21000   -114.42816    -117.5508    16.131184   -133.68198            0    3.1917509 3.7757378e-05         4.01         4.01     1.892101 4.7169696e-09    -113827.2   -170369.09   -170433.33   -679.19864 
   21050   -114.42816    -117.5508    16.131184   -133.68198            0    3.1917515 2.4541829e-05         4.01         4.01     1.892101 2.0679817e-10   -113827.26   -170369.02   -170433.43   -679.33085 
   21100   -114.42816    -117.5508    16.131185   -133.68198            0    3.1917519 5.5122663e-05         4.01         4.01     1.892101 2.4290475e-08   -113827.29   -170369.47   -170432.97   -679.41685 
   21150   -114.42816    -117.5508    16.131185   -133.68198            0    3.1917522 2.1245029e-05         4.01         4.01     1.892101 6.5912684e-12   -113827.33   -170369.26    -170433.2    -679.5308 
   21200   -114.42816    -117.5508    16.131185   -133.68198            0    3.1917525 1.5611602e-05         4.01         4.01     1.892101 1.497464e-12   -113827.36   -170369.26   -170433.22   -679.60246 
   21250   -114.42816    -117.5508    16.131186   -133.68198            0    3.1917528 1.5541139e-05         4.01         4.01     1.892101 2.577227e-11   -113827.39   -170369.22   -170433.26   -679.68194 
   21300   -114.42816    -117.5508    16.131186   -133.68198            0     3.191753 1.9842861e-05         4.01         4.01     1.892101 9.1970173e-12   -113827.41   -170369.53   -170432.97   -679.72358 
   21350   -114.42816    -117.5508    16.131186   -133.68198            0    3.1917531 1.0191805e-05         4.01         4.01     1.892101 7.4215415e-10   -113827.43   -170369.43   -170433.08   -679.76958 
   21400   -114.42816    -117.5508    16.131186   -133.68199            0    3.1917534 8.7057646e-06         4.01         4.01     1.892101 9.6697634e-10   -113827.45   -170369.53   -170432.99   -679.81974 
   21450   -114.42816    -117.5508    16.131187   -133.68199            0    3.1917535 9.787429e-06         4.01         4.01     1.892101 2.3779879e-11   -113827.46   -170369.67   -170432.86   -679.86039 
   21500   -114.42816    -117.5508    16.131187   -133.68199            0    3.1917537 7.0408131e-06         4.01         4.01     1.892101 1.0419109e-11   -113827.48   -170369.68   -170432.85   -679.91084 
   21550   -114.42816    -117.5508    16.131187   -133.68199            0    3.1917539 9.5556415e-06         4.01         4.01     1.892101 3.1456312e-11    -113827.5   -170369.73    -170432.8   -679.95626 
   21600   -114.42816    -117.5508    16.131187   -133.68199            0    3.1917539 5.3763599e-06         4.01         4.01     1.892101 1.0391982e-10    -113827.5   -170369.86   -170432.68   -679.96564 
   21650   -114.42816    -117.5508    16.131187   -133.68199            0    3.1917541 4.7520045e-06         4.01         4.01     1.892101 1.1839336e-11   -113827.51   -170369.92   -170432.62   -679.99244 
   21700   -114.42816    -117.5508    16.131187   -133.68199            0    3.1917541 4.1302744e-06         4.01         4.01     1.892101 1.0042068e-10   -113827.52   -170369.98   -170432.56   -680.01193 
   21750   -114.42816    -117.5508    16.131187   -133.68199            0    3.1917542 7.5744809e-06         4.01         4.01     1.892101 2.9998177e-10   -113827.53   -170369.99   -170432.56   -680.03624 
   21800   -114.42816    -117.5508    16.131188   -133.68199            0    3.1917543 8.2654171e-06         4.01         4.01     1.892101 4.7528787e-10   -113827.53   -170370.06   -170432.49   -680.05215 
   21850   -114.42816    -117.5508    16.131188   -133.68199            0    3.1917543 6.1218237e-06         4.01         4.01     1.892101 4.4220222e-10   -113827.54   -170370.13   -170432.43   -680.05903 
   21900   -114.42816    -117.5508    16.131188   -133.68199            0    3.1917544 9.7529448e-06         4.01         4.01     1.892101 5.8605824e-10   -113827.54   -170370.16   -170432.39   -680.07836 
   21950   -114.42816    -117.5508    16.131188   -133.68199            0    3.1917544 3.2355119e-06         4.01         4.01     1.892101 5.8181998e-11   -113827.54   -170370.26   -170432.29   -680.07549 
   22000   -114.42816    -117.5508    16.131188   -133.68199            0    3.1917544 3.7684124e-06         4.01         4.01     1.892101 5.4060959e-11   -113827.54   -170370.35   -170432.21   -680.07742 
   22050   -114.42816    -117.5508    16.131188   -133.68199            0    3.1917544 3.108136e-06         4.01         4.01     1.892101 3.4460602e-11   -113827.55   -170370.36   -170432.19   -680.09094 
   22100   -114.42816    -117.5508    16.131188   -133.68199            0    3.1917545 4.3033187e-06         4.01         4.01     1.892101 6.1844043e-11   -113827.55   -170370.47   -170432.09   -680.09077 
   22150   -114.42816    -117.5508    16.131188   -133.68199            0    3.1917545 7.9084602e-06         4.01         4.01     1.892101 1.549278e-11   -113827.56   -170370.42   -170432.14   -680.10887 
   22200   -114.42816    -117.5508    16.131188   -133.68199            0    3.1917545 2.2207778e-06         4.01         4.01     1.892101 5.4943657e-13   -113827.55   -170370.52   -170432.04   -680.10485 
   22250   -114.42816    -117.5508    16.131188   -133.68199            0    3.1917545 5.0823525e-06         4.01         4.01     1.892101 5.2048508e-10   -113827.56   -170370.55   -170432.01   -680.11139 
   22300   -114.42816    -117.5508    16.131188   -133.68199            0    3.1917545 2.0086276e-06         4.01         4.01     1.892101  4.59788e-11   -113827.56   -170370.62   -170431.94   -680.10874 
   22350   -114.42816    -117.5508    16.131188   -133.68199            0    3.1917545 1.6932692e-06         4.01         4.01     1.892101 3.9702291e-11   -113827.56   -170370.65   -170431.91   -680.11184 
   22400   -114.42816    -117.5508    16.131188   -133.68199            0    3.1917546 2.0118901e-06         4.01         4.01     1.892101 3.1049965e-12   -113827.56   -170370.69   -170431.87   -680.11513 
   22450   -114.42816    -117.5508    16.131188   -133.68199            0    3.1917546 1.9816965e-06         4.01         4.01     1.892101 2.5353849e-12   -113827.56   -170370.75   -170431.81   -680.11579 
   22500   -114.42816    -117.5508    16.131188   -133.68199            0    3.1917546 1.7526317e-06         4.01         4.01     1.892101 3.5185637e-12   -113827.56   -170370.77   -170431.79   -680.11688 
   22550   -114.42816    -117.5508    16.131188   -133.68199            0    3.1917546 1.4148413e-06         4.01         4.01     1.892101 1.4429094e-12   -113827.56    -170370.8   -170431.76   -680.11844 
   22600   -114.42816    -117.5508    16.131188   -133.68199            0    3.1917546 2.3733632e-06         4.01         4.01     1.892101 7.755441e-11   -113827.56   -170370.85   -170431.71   -680.11867 
   22650   -114.42816    -117.5508    16.131188   -133.68199            0    3.1917546 1.3058317e-06         4.01         4.01     1.892101 8.9125968e-11   -113827.56   -170370.87   -170431.69   -680.12043 
   22700   -114.42816    -117.5508    16.131188   -133.68199            0    3.1917546 1.2457822e-06         4.01         4.01     1.892101 5.9545525e-12   -113827.56    -170370.9   -170431.66   -680.12121 
   22750   -114.42816    -117.5508    16.131188   -133.68199            0    3.1917546 1.1484859e-06         4.01         4.01     1.892101 2.6946006e-12   -113827.56   -170370.94   -170431.62   -680.12174 
   22800   -114.42816    -117.5508    16.131188   -133.68199            0    3.1917546 1.5365699e-06         4.01         4.01     1.892101 1.2559062e-11   -113827.56   -170370.97   -170431.59   -680.12198 
   22850   -114.42816    -117.5508    16.131188   -133.68199            0    3.1917546 1.061485e-06         4.01         4.01     1.892101 8.253119e-12   -113827.56   -170370.99   -170431.57   -680.12248 
   22876   -114.42816    -117.5508    16.131188   -133.68199            0    3.1917546 9.7332404e-07         4.01         4.01     1.892101 1.1439617e-11   -113827.56   -170371.01   -170431.55   -680.12285 
Loop time of 9.5627 on 8 procs for 4075 steps with 10 atoms

28.4% CPU use with 8 MPI tasks x no OpenMP threads

Minimization stats:
  Stopping criterion = force tolerance
  Energy initial, next-to-last, final = 
        -114.428132307     -114.428163071     -114.428163071
  Force two-norm initial, final = 0.0453694 9.73324e-07
  Force max component initial, final = 0.0145553 3.7991e-07
  Final line search alpha, max atom move = 0 0
  Iterations, force evaluations = 4075 4075

MPI task timing breakdown:
Section |  min time  |  avg time  |  max time  |%varavg| %total
---------------------------------------------------------------
Pair    | 0.0089205  | 0.65612    | 3.2355     | 127.9 |  6.86
Bond    | 0.0023197  | 0.004011   | 0.0061763  |   2.5 |  0.04
Neigh   | 0          | 0          | 0          |   0.0 |  0.00
Comm    | 4.9022     | 7.3355     | 8.4729     |  50.8 | 76.71
Output  | 0.033621   | 0.035655   | 0.041      |   1.1 |  0.37
Modify  | 0.0029765  | 0.0044614  | 0.0059506  |   1.8 |  0.05
Other   |            | 1.527      |            |       | 15.97

Nlocal:    1.25 ave 4 max 0 min
Histogram: 4 0 0 0 0 3 0 0 0 1
Nghost:    808.75 ave 810 max 806 min
Histogram: 1 0 0 0 0 3 0 0 0 4
Neighs:    331.625 ave 1698 max 0 min
Histogram: 5 1 0 1 0 0 0 0 0 1

Total # of neighbors = 2653
Ave neighs/atom = 265.3
Ave special neighs/atom = 1
Neighbor list builds = 0
Dangerous builds = 0
min_style quickmin
minimize 0.0 1e-06 20000 100000
WARNING: Resetting reneighboring criteria during minimization (/tmp/dan/spack-stage/spack-stage-5I_aA6/lammps-feature-CORESHELL-pol/src/min.cpp:168)
Memory usage per processor = 9.02352 Mbytes
Step TotEng E_pair E_vdwl E_coul E_long E_bond Fnorm Lx Ly Lz Temp Press Pxx Pyy Pzz 
   22876   -114.42816    -117.5508    16.131188   -133.68199            0    3.1917546 9.7332392e-07         4.01         4.01    1.8927453            0   -113788.82   -170313.02   -170373.54   -679.89135 
   22877   -114.42816    -117.5508    16.131188   -133.68199            0    3.1917546 9.7332392e-07         4.01         4.01    1.8927453 4.8327738e-13   -113788.82   -170313.02   -170373.54   -679.89135 
Loop time of 0.00874813 on 8 procs for 1 steps with 10 atoms

40.0% CPU use with 8 MPI tasks x no OpenMP threads

Minimization stats:
  Stopping criterion = force tolerance
  Energy initial, next-to-last, final = 
        -114.428163071     -114.428163071     -114.428163071
  Force two-norm initial, final = 9.73324e-07 9.73324e-07
  Force max component initial, final = 3.7991e-07 3.7991e-07
  Final line search alpha, max atom move = 0 0
  Iterations, force evaluations = 1 1

MPI task timing breakdown:
Section |  min time  |  avg time  |  max time  |%varavg| %total
---------------------------------------------------------------
Pair    | 8.362e-06  | 0.00057607 | 0.0036687  |   4.9 |  6.59
Bond    | 8.82e-07   | 1.7541e-06 | 3.807e-06  |   0.1 |  0.02
Neigh   | 0          | 0          | 0          |   0.0 |  0.00
Comm    | 0.0021551  | 0.0049895  | 0.0060687  |   2.1 | 57.04
Output  | 0          | 0          | 0          |   0.0 |  0.00
Modify  | 1.765e-06  | 2.6576e-06 | 3.604e-06  |   0.0 |  0.03
Other   |            | 0.003178   |            |       | 36.33

Nlocal:    1.25 ave 4 max 0 min
Histogram: 4 0 0 0 0 3 0 0 0 1
Nghost:    808.75 ave 810 max 806 min
Histogram: 1 0 0 0 0 3 0 0 0 4
Neighs:    331.625 ave 1698 max 0 min
Histogram: 5 1 0 1 0 0 0 0 0 1

Total # of neighbors = 2653
Ave neighs/atom = 265.3
Ave special neighs/atom = 1
Neighbor list builds = 0
Dangerous builds = 0
unfix ef
fix ef all efield -0.0173205080757 -0.0173205080757 -0.0173205080757
fix_modify ef energy yes
min_style fire
minimize 0.0 1e-06 20000 100000
WARNING: Resetting reneighboring criteria during minimization (/tmp/dan/spack-stage/spack-stage-5I_aA6/lammps-feature-CORESHELL-pol/src/min.cpp:168)
Memory usage per processor = 9.02352 Mbytes
Step TotEng E_pair E_vdwl E_coul E_long E_bond Fnorm Lx Ly Lz Temp Press Pxx Pyy Pzz 
   22877   -114.44199    -117.5508    16.131188   -133.68199            0    3.1917546  0.045369419         4.01         4.01    1.8927453            0   -113788.82   -170313.02   -170373.54   -679.89135 
   22900   -114.44198   -117.55657    16.138253   -133.69483            0     3.197606  0.036075306         4.01         4.01    1.8927453  0.013686117   -113570.62   -169938.13   -170000.76   -772.98234 
   22950     -114.442   -117.55721    16.143273   -133.70048            0    3.1982881  0.014505124         4.01         4.01    1.8927453 0.0016671152    -113266.8   -169659.23   -169721.56   -419.61043 
   23000   -114.44201   -117.55727    16.144692   -133.70196            0    3.1983761 0.0098838331         4.01         4.01    1.8927453 0.00044424274   -113199.37   -169579.99    -169641.5   -376.62012 
   23050   -114.44201    -117.5585    16.144552   -133.70305            0     3.199642  0.019387077         4.01         4.01    1.8927453 0.0034061064   -113321.05   -169669.91   -169738.01   -555.24396 
   23100   -114.44201   -117.55809    16.145781   -133.70387            0     3.199256 0.0085041719         4.01         4.01    1.8927453  0.001636963   -113249.12   -169588.64   -169653.19   -505.54006 
   23150   -114.44201   -117.55802    16.146123   -133.70414            0    3.1991995 0.0057694149         4.01         4.01    1.8927453 0.00030765408   -113243.88   -169565.46   -169623.18    -543.0017 
   23200   -114.44201   -117.55814     16.14618   -133.70432            0    3.1993422  0.004856045         4.01         4.01    1.8927453 0.00030250771   -113269.37   -169581.73   -169636.73    -589.6609 
   23250   -114.44201   -117.55828    16.146177   -133.70446            0    3.1994971 0.0047756627         4.01         4.01    1.8927453 0.00033412755   -113296.68   -169594.88    -169680.3   -614.85365 
   23300   -114.44202   -117.55834    16.146223   -133.70456            0    3.1995568  0.004322025         4.01         4.01    1.8927453 0.0002735187   -113308.12   -169597.47   -169686.16    -640.7344 
   23350   -114.44202   -117.55836    16.146284   -133.70464            0    3.1995869 0.0030902602         4.01         4.01    1.8927453 0.00021001235   -113316.03   -169609.57   -169665.67   -672.86044 
   23400   -114.44202    -117.5584    16.146349   -133.70475            0    3.1996412  0.003137377         4.01         4.01    1.8927453 0.00010896794   -113323.75   -169623.99   -169652.77   -694.50498 
   23450   -114.44202   -117.55846    16.146383   -133.70484            0     3.199699 0.0025726498         4.01         4.01    1.8927453 6.097042e-05   -113331.79   -169623.76   -169664.84   -706.77717 
   23500   -114.44202   -117.55852    16.146451   -133.70497            0     3.199768 0.0021210881         4.01         4.01    1.8927453 4.9513372e-05   -113339.01   -169618.95   -169676.63   -721.44862 
   23550   -114.44202   -117.55856    16.146497   -133.70506            0    3.1998156 0.0063021659         4.01         4.01    1.8927453 9.3454534e-05   -113345.92   -169673.83    -169623.6   -740.32442 
   23600   -114.44202   -117.55859    16.146503   -133.70509            0    3.1998486  0.001826123         4.01         4.01    1.8927453 5.8980642e-07   -113352.29   -169620.58    -169688.5   -747.80625 
   23650   -114.44202   -117.55862    16.146536   -133.70515            0    3.1998802 0.0015719954         4.01         4.01    1.8927453 3.298735e-05   -113356.28   -169623.84    -169687.9   -757.11098 
   23700   -114.44202   -117.55865    16.146575   -133.70523            0    3.1999199 0.0013028872         4.01         4.01    1.8927453 1.3047849e-07   -113360.94   -169637.27   -169678.41   -767.15322 
   23750   -114.44202   -117.55866    16.146589   -133.70525            0    3.1999358 0.0010725211         4.01         4.01    1.8927453 3.6283237e-07   -113363.54   -169635.13   -169682.42   -773.05736 
   23800   -114.44202   -117.55869     16.14663   -133.70532            0    3.1999675 0.00092968969         4.01         4.01    1.8927453 4.552018e-07   -113365.98   -169635.71   -169682.25   -779.97938 
   23850   -114.44202   -117.55871    16.146649   -133.70536            0    3.1999877 0.0010187466         4.01         4.01    1.8927453 2.0554964e-05   -113368.71   -169629.93   -169690.25   -785.93968 
   23900   -114.44202   -117.55872    16.146663   -133.70538            0    3.1999992 0.00089794266         4.01         4.01    1.8927453 4.0311586e-06   -113370.57    -169630.7   -169690.99    -790.0323 
   23950   -114.44202   -117.55873    16.146672    -133.7054            0    3.2000104 0.00072999059         4.01         4.01    1.8927453 4.3633062e-09   -113372.25   -169641.51   -169681.79   -793.45486 
   24000   -114.44202   -117.55874    16.146682   -133.70542            0    3.2000231 0.00062667055         4.01         4.01    1.8927453 9.308391e-06   -113373.67   -169635.32   -169689.11   -796.57964 
   24050   -114.44202   -117.55875    16.146693   -133.70545            0    3.2000379 0.00051215301         4.01         4.01    1.8927453 1.4102831e-08   -113375.53   -169641.32   -169684.76   -800.50066 
   24100   -114.44202   -117.55876    16.146703   -133.70546            0     3.200043 0.00041823801         4.01         4.01    1.8927453 7.027718e-07   -113376.19   -169637.75   -169688.66    -802.1518 
   24150   -114.44202   -117.55876    16.146708   -133.70547            0    3.2000486 0.00034489051         4.01         4.01    1.8927453 5.2457145e-07      -113377   -169638.98   -169688.08   -803.95545 
   24200   -114.44202   -117.55877    16.146715   -133.70548            0    3.2000551 0.00031752672         4.01         4.01    1.8927453 8.6920105e-07   -113377.79   -169641.92   -169685.58   -805.86435 
   24250   -114.44202   -117.55877    16.146719   -133.70549            0     3.200059 0.00031381349         4.01         4.01    1.8927453 6.5721732e-07    -113378.3   -169642.57   -169685.37   -806.95314 
   24300   -114.44202   -117.55878    16.146726    -133.7055            0    3.2000652 0.00025662906         4.01         4.01    1.8927453 2.406312e-09   -113378.89   -169639.83   -169688.48   -808.35446 
   24350   -114.44202   -117.55878    16.146731   -133.70551            0    3.2000697  0.000202036         4.01         4.01    1.8927453 2.697804e-07   -113379.42   -169642.27   -169686.29   -809.68539 
   24400   -114.44202   -117.55879    16.146735   -133.70552            0    3.2000738 0.00018809589         4.01         4.01    1.8927453 5.1505526e-10   -113379.84   -169640.79   -169687.99   -810.73342 
   24450   -114.44202   -117.55879    16.146738   -133.70553            0    3.2000763 0.00017301578         4.01         4.01    1.8927453 1.0068867e-07   -113380.13   -169641.02   -169687.99   -811.37824 
   24500   -114.44202   -117.55879    16.146741   -133.70553            0    3.2000789 0.00013012122         4.01         4.01    1.8927453 3.8172019e-08   -113380.41   -169642.47    -169686.7   -812.05208 
   24550   -114.44202   -117.55879    16.146745   -133.70554            0    3.2000818 0.00012936238         4.01         4.01    1.8927453 7.9686391e-08   -113380.61   -169641.64   -169687.53   -812.65135 
   24600   -114.44202   -117.55879    16.146747   -133.70554            0    3.2000836 0.00012305797         4.01         4.01    1.8927453 6.0948121e-08   -113380.83   -169643.25   -169686.07   -813.17691 
   24650   -114.44202    -117.5588    16.146749   -133.70554            0    3.2000851 8.9844041e-05         4.01         4.01    1.8927453 6.5449279e-08   -113381.03   -169643.12   -169686.34   -813.63312 
   24700   -114.44202    -117.5588    16.146751   -133.70555            0    3.2000866 7.6563555e-05         4.01         4.01    1.8927453 3.1291019e-08   -113381.17   -169643.07   -169686.45   -813.97883 
   24750   -114.44202    -117.5588    16.146753   -133.70555            0    3.2000883 6.3197434e-05         4.01         4.01    1.8927453 4.6926998e-08   -113381.32   -169642.88   -169686.66   -814.39906 
   24800   -114.44202    -117.5588    16.146754   -133.70555            0    3.2000896 6.7585198e-05         4.01         4.01    1.8927453 2.1970591e-08   -113381.43   -169643.52   -169686.09   -814.69453 
   24850   -114.44202    -117.5588    16.146756   -133.70556            0    3.2000912 0.00018555376         4.01         4.01    1.8927453 8.1534407e-09   -113381.57    -169641.8   -169687.86   -815.05768 
   24900   -114.44202    -117.5588    16.146757   -133.70556            0    3.2000915 5.156206e-05         4.01         4.01    1.8927453 3.0706978e-11   -113381.64   -169643.74   -169685.97   -815.21248 
   24950   -114.44202    -117.5588    16.146758   -133.70556            0    3.2000925 5.4458294e-05         4.01         4.01    1.8927453 4.4654638e-09    -113381.7   -169643.92   -169685.78   -815.40062 
   25000   -114.44202    -117.5588    16.146759   -133.70556            0    3.2000933 3.3872846e-05         4.01         4.01    1.8927453 3.2717459e-10   -113381.79   -169643.81   -169685.92   -815.62641 
   25050   -114.44202    -117.5588     16.14676   -133.70556            0    3.2000939 3.3812957e-05         4.01         4.01    1.8927453 1.6153255e-08   -113381.85   -169643.98   -169685.78   -815.78219 
   25100   -114.44202    -117.5588    16.146761   -133.70556            0    3.2000948 3.8792756e-05         4.01         4.01    1.8927453 1.5767769e-08   -113381.94   -169644.23   -169685.58   -816.00901 
   25150   -114.44202    -117.5588    16.146761   -133.70557            0    3.2000951 2.1734694e-05         4.01         4.01    1.8927453 1.4165567e-10   -113381.97   -169644.01   -169685.83   -816.07666 
   25200   -114.44202    -117.5588    16.146762   -133.70557            0    3.2000955 2.0352838e-05         4.01         4.01    1.8927453 4.2083965e-10   -113382.01   -169644.25   -169685.59   -816.17705 
   25250   -114.44202   -117.55881    16.146762   -133.70557            0    3.2000957 1.5615946e-05         4.01         4.01    1.8927453 9.5811221e-10   -113382.04   -169644.28   -169685.59   -816.25172 
   25300   -114.44202   -117.55881    16.146762   -133.70557            0    3.2000959 1.496324e-05         4.01         4.01    1.8927453 2.5604916e-10   -113382.07   -169644.38   -169685.51   -816.30973 
   25350   -114.44202   -117.55881    16.146763   -133.70557            0    3.2000963 1.275811e-05         4.01         4.01    1.8927453 3.0159995e-10    -113382.1   -169644.39   -169685.51   -816.39622 
   25400   -114.44202   -117.55881    16.146763   -133.70557            0    3.2000966 1.3049695e-05         4.01         4.01    1.8927453 3.6532385e-10   -113382.12    -169644.6   -169685.32   -816.45666 
   25450   -114.44202   -117.55881    16.146763   -133.70557            0    3.2000967 9.2043197e-06         4.01         4.01    1.8927453 5.5957982e-10   -113382.14   -169644.61   -169685.31   -816.49771 
   25500   -114.44202   -117.55881    16.146763   -133.70557            0    3.2000969 8.071764e-06         4.01         4.01    1.8927453 1.5384909e-10   -113382.16   -169644.68   -169685.24   -816.55577 
   25550   -114.44202   -117.55881    16.146764   -133.70557            0    3.2000971 7.604949e-06         4.01         4.01    1.8927453 2.4345665e-10   -113382.17   -169644.78   -169685.15   -816.59076 
   25600   -114.44202   -117.55881    16.146764   -133.70557            0    3.2000972 6.883589e-06         4.01         4.01    1.8927453 3.1809248e-10   -113382.19   -169644.85   -169685.09   -816.61967 
   25650   -114.44202   -117.55881    16.146764   -133.70557            0    3.2000974 7.7763571e-06         4.01         4.01    1.8927453 2.6340087e-10    -113382.2   -169644.96   -169684.97   -816.65265 
   25700   -114.44202   -117.55881    16.146764   -133.70557            0    3.2000975 5.5885822e-06         4.01         4.01    1.8927453 8.5712646e-11   -113382.21      -169645   -169684.95   -816.68138 
   25750   -114.44202   -117.55881    16.146764   -133.70557            0    3.2000976 5.570753e-06         4.01         4.01    1.8927453 2.0720691e-10   -113382.22   -169645.01   -169684.93   -816.70869 
   25800   -114.44202   -117.55881    16.146764   -133.70557            0    3.2000976 4.2881202e-06         4.01         4.01    1.8927453 7.1403938e-11   -113382.22   -169645.12   -169684.83   -816.72331 
   25850   -114.44202   -117.55881    16.146764   -133.70557            0    3.2000977 3.5355096e-06         4.01         4.01    1.8927453 1.8005019e-12   -113382.23   -169645.19   -169684.76   -816.74953 
   25900   -114.44202   -117.55881    16.146764   -133.70557            0    3.2000978 3.2709454e-06         4.01         4.01    1.8927453 3.6847424e-10   -113382.24   -169645.27   -169684.68   -816.76184 
   25950   -114.44202   -117.55881    16.146765   -133.70557            0    3.2000978 3.0512405e-06         4.01         4.01    1.8927453 4.2616371e-11   -113382.24   -169645.31   -169684.64   -816.77445 
   26000   -114.44202   -117.55881    16.146765   -133.70557            0    3.2000979 2.8249316e-06         4.01         4.01    1.8927453 1.0673567e-11   -113382.25   -169645.37   -169684.59   -816.77937 
   26050   -114.44202   -117.55881    16.146765   -133.70557            0    3.2000979 4.2260883e-06         4.01         4.01    1.8927453 1.6955534e-10   -113382.25   -169645.44   -169684.52   -816.78367 
   26100   -114.44202   -117.55881    16.146765   -133.70557            0    3.2000979 2.3861265e-06         4.01         4.01    1.8927453 1.4933749e-10   -113382.25   -169645.47   -169684.48   -816.79677 
   26150   -114.44202   -117.55881    16.146765   -133.70557            0    3.2000979 2.5699584e-06         4.01         4.01    1.8927453 1.814143e-11   -113382.25   -169645.54   -169684.42   -816.80069 
   26200   -114.44202   -117.55881    16.146765   -133.70557            0     3.200098 2.0722034e-06         4.01         4.01    1.8927453 1.0375192e-11   -113382.26   -169645.57   -169684.39   -816.80596 
   26250   -114.44202   -117.55881    16.146765   -133.70557            0     3.200098 6.5932911e-06         4.01         4.01    1.8927453 1.2320842e-11   -113382.26   -169645.71   -169684.25   -816.81251 
   26300   -114.44202   -117.55881    16.146765   -133.70557            0     3.200098 1.9692581e-06         4.01         4.01    1.8927453 2.1305268e-12   -113382.26    -169645.7   -169684.27   -816.81438 
   26350   -114.44202   -117.55881    16.146765   -133.70557            0     3.200098 1.3998534e-05         4.01         4.01    1.8927453 4.5249862e-10   -113382.26   -169645.63   -169684.33   -816.82043 
   26400   -114.44202   -117.55881    16.146765   -133.70557            0     3.200098 3.0649802e-06         4.01         4.01    1.8927453 6.2578986e-13   -113382.26   -169645.81   -169684.15   -816.81961 
   26450   -114.44202   -117.55881    16.146765   -133.70557            0     3.200098 2.2223606e-06         4.01         4.01    1.8927453 6.2102596e-13   -113382.26   -169645.81   -169684.15   -816.82225 
   26500   -114.44202   -117.55881    16.146765   -133.70557            0     3.200098 1.5172511e-06         4.01         4.01    1.8927453 8.6254617e-12   -113382.26   -169645.86    -169684.1   -816.82247 
   26550   -114.44202   -117.55881    16.146765   -133.70557            0     3.200098 1.3560987e-06         4.01         4.01    1.8927453 7.0215469e-12   -113382.26   -169645.87   -169684.09   -816.82322 
   26600   -114.44202   -117.55881    16.146765   -133.70557            0     3.200098 1.2637284e-06         4.01         4.01    1.8927453 5.2802767e-11   -113382.26    -169645.9   -169684.06   -816.82431 
   26650   -114.44202   -117.55881    16.146765   -133.70557            0    3.2000981 4.5894454e-06         4.01         4.01    1.8927453 6.8156672e-11   -113382.26   -169645.98   -169683.98   -816.82421 
   26700   -114.44202   -117.55881    16.146765   -133.70557            0    3.2000981 1.8485526e-06         4.01         4.01    1.8927453 6.4431467e-11   -113382.26   -169645.98   -169683.98   -816.82538 
   26750   -114.44202   -117.55881    16.146765   -133.70557            0    3.2000981 1.8945342e-06         4.01         4.01    1.8927453 1.0914379e-11   -113382.26   -169646.01   -169683.95   -816.82613 
   26800   -114.44202   -117.55881    16.146765   -133.70557            0    3.2000981 1.2593731e-06         4.01         4.01    1.8927453 6.2143154e-12   -113382.26   -169646.02   -169683.95   -816.82683 
   26847   -114.44202   -117.55881    16.146765   -133.70557            0    3.2000981  9.98191e-07         4.01         4.01    1.8927453  4.50872e-12   -113382.26   -169646.04   -169683.92   -816.82702 
Loop time of 9.85827 on 8 procs for 3970 steps with 10 atoms

28.5% CPU use with 8 MPI tasks x no OpenMP threads

Minimization stats:
  Stopping criterion = force tolerance
  Energy initial, next-to-last, final = 
        -114.441986637     -114.442017242     -114.442017242
  Force two-norm initial, final = 0.0453694 9.98191e-07
  Force max component initial, final = 0.0145553 3.74777e-07
  Final line search alpha, max atom move = 0 0
  Iterations, force evaluations = 3970 3970

MPI task timing breakdown:
Section |  min time  |  avg time  |  max time  |%varavg| %total
---------------------------------------------------------------
Pair    | 0.0075902  | 0.64321    | 3.2344     | 129.1 |  6.52
Bond    | 0.002027   | 0.0036995  | 0.007201   |   2.5 |  0.04
Neigh   | 0          | 0          | 0          |   0.0 |  0.00
Comm    | 4.9951     | 7.5313     | 8.805      |  52.6 | 76.40
Output  | 0.070822   | 0.076199   | 0.084583   |   1.6 |  0.77
Modify  | 0.0028313  | 0.0043638  | 0.0062051  |   2.1 |  0.04
Other   |            | 1.599      |            |       | 16.22

Nlocal:    1.25 ave 4 max 0 min
Histogram: 4 0 0 0 0 3 0 0 0 1
Nghost:    808.75 ave 810 max 806 min
Histogram: 1 0 0 0 0 3 0 0 0 4
Neighs:    331.625 ave 1698 max 0 min
Histogram: 5 1 0 1 0 0 0 0 0 1

Total # of neighbors = 2653
Ave neighs/atom = 265.3
Ave special neighs/atom = 1
Neighbor list builds = 0
Dangerous builds = 0
min_style quickmin
minimize 0.0 1e-06 20000 100000
WARNING: Resetting reneighboring criteria during minimization (/tmp/dan/spack-stage/spack-stage-5I_aA6/lammps-feature-CORESHELL-pol/src/min.cpp:168)
Memory usage per processor = 9.02352 Mbytes
Step TotEng E_pair E_vdwl E_coul E_long E_bond Fnorm Lx Ly Lz Temp Press Pxx Pyy Pzz 
   26847   -114.44202   -117.55881    16.146765   -133.70557            0    3.2000981 9.9819103e-07         4.01         4.01     1.893386            0   -113343.89   -169588.63    -169626.5   -816.55061 
   26848   -114.44202   -117.55881    16.146765   -133.70557            0    3.2000981 9.9819101e-07         4.01         4.01     1.893386 5.9551926e-13   -113343.89   -169588.63    -169626.5   -816.55061 
Loop time of 0.00548946 on 8 procs for 1 steps with 10 atoms

27.3% CPU use with 8 MPI tasks x no OpenMP threads

Minimization stats:
  Stopping criterion = force tolerance
  Energy initial, next-to-last, final = 
        -114.442017242     -114.442017242     -114.442017242
  Force two-norm initial, final = 9.98191e-07 9.98191e-07
  Force max component initial, final = 3.74777e-07 3.74777e-07
  Final line search alpha, max atom move = 0 0
  Iterations, force evaluations = 1 1

MPI task timing breakdown:
Section |  min time  |  avg time  |  max time  |%varavg| %total
---------------------------------------------------------------
Pair    | 1.1117e-05 | 0.00035226 | 0.0016755  |   2.8 |  6.42
Bond    | 9.77e-07   | 2.9915e-06 | 6.567e-06  |   0.1 |  0.05
Neigh   | 0          | 0          | 0          |   0.0 |  0.00
Comm    | 0.0028241  | 0.0040273  | 0.0045105  |   0.9 | 73.36
Output  | 0          | 0          | 0          |   0.0 |  0.00
Modify  | 1.141e-06  | 2.0012e-06 | 2.834e-06  |   0.0 |  0.04
Other   |            | 0.001105   |            |       | 20.13

Nlocal:    1.25 ave 4 max 0 min
Histogram: 4 0 0 0 0 3 0 0 0 1
Nghost:    808.75 ave 810 max 806 min
Histogram: 1 0 0 0 0 3 0 0 0 4
Neighs:    331.625 ave 1698 max 0 min
Histogram: 5 1 0 1 0 0 0 0 0 1

Total # of neighbors = 2653
Ave neighs/atom = 265.3
Ave special neighs/atom = 1
Neighbor list builds = 0
Dangerous builds = 0
unfix ef
fix ef all efield -0.0202072594216 -0.0202072594216 -0.0202072594216
fix_modify ef energy yes
min_style fire
minimize 0.0 1e-06 20000 100000
WARNING: Resetting reneighboring criteria during minimization (/tmp/dan/spack-stage/spack-stage-5I_aA6/lammps-feature-CORESHELL-pol/src/min.cpp:168)
Memory usage per processor = 9.02352 Mbytes
Step TotEng E_pair E_vdwl E_coul E_long E_bond Fnorm Lx Ly Lz Temp Press Pxx Pyy Pzz 
   26848    -114.4559   -117.55881    16.146765   -133.70557            0    3.2000981  0.045369424         4.01         4.01     1.893386            0   -113343.89   -169588.63    -169626.5   -816.55061 
   26850    -114.4559   -117.55919    16.146924   -133.70611            0    3.2004869   0.03708423         4.01         4.01     1.893386 0.0019868913   -113350.04   -169587.08   -169625.21   -837.83475 
   26900   -114.45591   -117.56416    16.158636    -133.7228            0    3.2055848  0.011680886         4.01         4.01     1.893386 0.0041089495   -112765.96   -168925.13   -168963.84   -408.90986 
   26950   -114.45592   -117.56484    16.160572   -133.72541            0    3.2063096  0.010654505         4.01         4.01     1.893386 0.0014952453   -112706.89   -168817.59   -168855.14   -447.94102 
   27000   -114.45592   -117.56499    16.161096   -133.72609            0     3.206487  0.010594782         4.01         4.01     1.893386 1.354398e-05    -112708.1   -168800.44   -168835.14   -488.72624 
   27050   -114.45593   -117.56602    16.160899   -133.72692            0    3.2075496 0.0099820273         4.01         4.01     1.893386 0.00035763261   -112816.35    -168889.8   -168934.55   -624.70564 
   27100   -114.45593   -117.56616    16.161298   -133.72746            0     3.207712 0.0088499981         4.01         4.01     1.893386 0.00010450594   -112822.12   -168885.06   -168934.05   -647.25553 
   27150   -114.45593   -117.56556    16.162185   -133.72774            0    3.2071282  0.017403057         4.01         4.01     1.893386 1.9351069e-05   -112755.57   -168770.38   -168730.48   -765.83404 
   27200   -114.45593   -117.56609    16.161848   -133.72794            0    3.2076805 0.0061095565         4.01         4.01     1.893386 0.00045605895   -112826.95   -168851.67    -168862.5   -766.66925 
   27250   -114.45593   -117.56626    16.161803   -133.72807            0    3.2078613 0.0039681538         4.01         4.01     1.893386 5.3834966e-05   -112853.34   -168875.55   -168916.43    -768.0437 
   27300   -114.45593   -117.56631    16.161823   -133.72813            0    3.2079154  0.003613824         4.01         4.01     1.893386 1.3590368e-05   -112865.32   -168882.87   -168919.21   -793.88408 
   27350   -114.45593   -117.56638    16.161895   -133.72827            0    3.2079988 0.0032257194         4.01         4.01     1.893386 7.2317894e-05   -112876.75   -168881.19    -168936.3   -812.76119 
   27400   -114.45593   -117.56644    16.161944   -133.72838            0    3.2080676 0.0027708767         4.01         4.01     1.893386 6.7960642e-06   -112886.99   -168895.63   -168926.39   -838.92935 
   27450   -114.45593    -117.5665    16.162003   -133.72851            0    3.2081411 0.0036149533         4.01         4.01     1.893386 0.00030519531   -112897.07   -168876.78   -168957.67   -856.76721 
   27500   -114.45593   -117.56652    16.162049   -133.72857            0    3.2081687 0.0054577268         4.01         4.01     1.893386 0.00022012931   -112902.24   -168945.28   -168887.59   -873.84821 
   27550   -114.45593   -117.56655    16.162053   -133.72861            0    3.2082043 0.0020332217         4.01         4.01     1.893386 1.3249601e-05   -112908.53   -168895.44   -168947.74   -882.41076 
   27600   -114.45593   -117.56658     16.16207   -133.72865            0     3.208232 0.0016060011         4.01         4.01     1.893386 9.6024579e-06    -112913.5   -168914.65   -168933.25   -892.59489 
   27650   -114.45593    -117.5666    16.162095    -133.7287            0    3.2082614 0.0025688805         4.01         4.01     1.893386 7.5929866e-05   -112916.87   -168891.57   -168960.04   -899.01599 
   27700   -114.45593   -117.56662    16.162122   -133.72875            0    3.2082859 0.0013662255         4.01         4.01     1.893386 5.6516506e-06   -112920.24   -168918.74   -168934.85   -907.12071 
   27750   -114.45593   -117.56665    16.162149   -133.72879            0    3.2083103 0.0011667185         4.01         4.01     1.893386 5.1733941e-06   -112923.01   -168919.59   -168935.77   -913.65516 
   27800   -114.45593   -117.56666    16.162164   -133.72883            0    3.2083284  0.000865704         4.01         4.01     1.893386 5.9307396e-06   -112925.38   -168913.38   -168944.12     -918.635 
   27850   -114.45593   -117.56668    16.162182   -133.72886            0    3.2083461 0.00074305884         4.01         4.01     1.893386 4.1660763e-06   -112927.58   -168916.93   -168942.25   -923.55633 
   27900   -114.45593   -117.56669    16.162198   -133.72889            0    3.2083621 0.00062680349         4.01         4.01     1.893386 6.5766494e-06   -112929.66   -168917.74   -168942.92   -928.31202 
   27950   -114.45593    -117.5667    16.162216   -133.72892            0    3.2083775 0.00055830321         4.01         4.01     1.893386 1.7022594e-06   -112930.99   -168917.36   -168944.14   -931.46109 
   28000   -114.45593   -117.56671    16.162231   -133.72895            0    3.2083911 0.00068200626         4.01         4.01     1.893386 7.2984545e-08   -112932.55   -168922.65   -168939.76   -935.24993 
   28050   -114.45593   -117.56672    16.162234   -133.72895            0    3.2083972 0.0004874056         4.01         4.01     1.893386 5.1505615e-08   -112933.66   -168921.18   -168942.33   -937.45895 
   28100   -114.45593   -117.56673    16.162246   -133.72897            0     3.208407 0.00037603344         4.01         4.01     1.893386 8.0063199e-09   -112934.47   -168918.26   -168945.55   -939.61584 
   28150   -114.45593   -117.56673    16.162255   -133.72899            0    3.2084139 0.00031381267         4.01         4.01     1.893386 1.2990463e-07   -112935.26   -168919.75   -168944.45   -941.58811 
   28200   -114.45593   -117.56674    16.162261     -133.729            0    3.2084202 0.00063855145         4.01         4.01     1.893386 3.3760787e-06   -112936.16    -168915.2   -168949.81   -943.45478 
   28250   -114.45593   -117.56674    16.162268   -133.72901            0    3.2084258 0.00056542747         4.01         4.01     1.893386 3.8923987e-08   -112936.68   -168924.99   -168940.16   -944.88406 
   28300   -114.45593   -117.56675    16.162271   -133.72902            0    3.2084297 0.00022951223         4.01         4.01     1.893386 7.7967635e-08   -112937.21   -168921.78   -168943.89   -945.95977 
   28350   -114.45593   -117.56675    16.162277   -133.72903            0    3.2084341 0.00017641089         4.01         4.01     1.893386 1.6039645e-06   -112937.59   -168921.16   -168944.71   -946.88714 
   28400   -114.45593   -117.56675    16.162278   -133.72903            0    3.2084362 0.00016666318         4.01         4.01     1.893386 1.1309808e-07   -112937.93   -168921.91   -168944.24   -947.64193 
   28450   -114.45593   -117.56676    16.162285   -133.72904            0    3.2084406 0.00014751871         4.01         4.01     1.893386 1.8741517e-07   -112938.25   -168922.36   -168943.79   -948.60909 
   28500   -114.45593   -117.56676    16.162287   -133.72905            0    3.2084436 0.00014498933         4.01         4.01     1.893386 2.4586826e-07   -112938.61   -168922.76    -168943.6   -949.45858 
   28550   -114.45593   -117.56676    16.162288   -133.72905            0    3.2084451 0.00011798165         4.01         4.01     1.893386 2.2056915e-07   -112938.86   -168922.78   -168943.83   -949.97407 
   28600   -114.45593   -117.56676    16.162291   -133.72905            0    3.2084477 0.00016441002         4.01         4.01     1.893386 1.7734869e-07   -112939.11   -168921.24   -168945.51      -950.59 
   28650   -114.45593   -117.56676    16.162293   -133.72906            0    3.2084489 7.7677381e-05         4.01         4.01     1.893386 8.1290516e-08   -112939.24   -168922.33    -168944.5   -950.88633 
   28700   -114.45593   -117.56677    16.162295   -133.72906            0    3.2084505 8.0598254e-05         4.01         4.01     1.893386 2.1505172e-08   -112939.36   -168923.14   -168943.73   -951.21181 
   28750   -114.45593   -117.56677    16.162296   -133.72906            0    3.2084516   6.1811e-05         4.01         4.01     1.893386 2.0273574e-08   -112939.47   -168923.03   -168943.89   -951.49869 
   28800   -114.45593   -117.56677    16.162298   -133.72907            0     3.208453 6.8014325e-05         4.01         4.01     1.893386 1.4300377e-08    -112939.6   -168923.46   -168943.51   -951.82858 
   28850   -114.45593   -117.56677    16.162299   -133.72907            0     3.208454 5.3627836e-05         4.01         4.01     1.893386 1.2980636e-08   -112939.71   -168923.47   -168943.57    -952.0885 
   28900   -114.45593   -117.56677      16.1623   -133.72907            0    3.2084549 4.1998308e-05         4.01         4.01     1.893386 4.0360878e-10    -112939.8   -168923.16   -168943.91    -952.3198 
   28950   -114.45593   -117.56677    16.162301   -133.72907            0    3.2084557 3.9750984e-05         4.01         4.01     1.893386 1.098982e-10   -112939.89   -168923.69   -168943.42   -952.54975 
   29000   -114.45593   -117.56677    16.162302   -133.72907            0    3.2084566 3.1501869e-05         4.01         4.01     1.893386 2.0870379e-11   -112939.95   -168923.47   -168943.65    -952.7214 
   29050   -114.45593   -117.56677    16.162303   -133.72907            0     3.208457 2.3828384e-05         4.01         4.01     1.893386 6.7815025e-09      -112940    -168923.7   -168943.45   -952.83395 
   29100   -114.45593   -117.56677    16.162303   -133.72907            0    3.2084573 3.1614748e-05         4.01         4.01     1.893386 1.1016081e-08   -112940.05      -168924   -168943.18   -952.95105 
   29150   -114.45593   -117.56677    16.162304   -133.72908            0     3.208458 3.3160384e-05         4.01         4.01     1.893386 7.8509934e-09    -112940.1   -168923.69   -168943.51   -953.09752 
   29200   -114.45593   -117.56677    16.162305   -133.72908            0    3.2084583 2.8166576e-05         4.01         4.01     1.893386 7.9246916e-09   -112940.13   -168924.23   -168942.98   -953.18908 
   29250   -114.45593   -117.56677    16.162305   -133.72908            0    3.2084587 1.5497703e-05         4.01         4.01     1.893386 8.7371434e-11   -112940.17   -168924.09   -168943.15   -953.26047 
   29300   -114.45593   -117.56677    16.162305   -133.72908            0     3.208459 1.6044329e-05         4.01         4.01     1.893386 4.3463669e-10   -112940.19   -168924.32   -168942.92   -953.32635 
   29350   -114.45593   -117.56677    16.162306   -133.72908            0    3.2084592 1.1761648e-05         4.01         4.01     1.893386 4.0599864e-09   -112940.22   -168924.33   -168942.93   -953.41339 
   29400   -114.45593   -117.56677    16.162306   -133.72908            0    3.2084594 1.8656264e-05         4.01         4.01     1.893386 3.3824311e-09   -112940.24   -168924.28   -168942.99   -953.45701 
   29450   -114.45593   -117.56677    16.162306   -133.72908            0    3.2084596 1.3706249e-05         4.01         4.01     1.893386 7.2420535e-11   -112940.26    -168924.6   -168942.68    -953.4937 
   29500   -114.45593   -117.56677    16.162306   -133.72908            0    3.2084597 1.1270389e-05         4.01         4.01     1.893386 2.1773851e-09   -112940.27   -168924.64   -168942.64   -953.52488 
   29550   -114.45593   -117.56677    16.162307   -133.72908            0    3.2084599 6.5433379e-06         4.01         4.01     1.893386 3.1491994e-10   -112940.29   -168924.65   -168942.63   -953.57536 
   29600   -114.45593   -117.56677    16.162307   -133.72908            0      3.20846 7.9488485e-06         4.01         4.01     1.893386 3.1048234e-10    -112940.3   -168924.68   -168942.61   -953.60327 
   29650   -114.45593   -117.56677    16.162307   -133.72908            0    3.2084601 6.8547924e-06         4.01         4.01     1.893386 3.3472683e-10   -112940.31   -168924.85   -168942.44   -953.62463 
   29700   -114.45593   -117.56677    16.162307   -133.72908            0    3.2084603 4.3209508e-06         4.01         4.01     1.893386 2.5215019e-10   -112940.32   -168924.89   -168942.41   -953.65255 
   29750   -114.45593   -117.56677    16.162307   -133.72908            0    3.2084603 4.3903272e-06         4.01         4.01     1.893386 1.8622742e-12   -112940.32   -168924.94   -168942.36   -953.67196 
   29800   -114.45593   -117.56677    16.162307   -133.72908            0    3.2084604 4.3211866e-06         4.01         4.01     1.893386 1.2363411e-10   -112940.33   -168925.04   -168942.26   -953.68367 
   29850   -114.45593   -117.56677    16.162307   -133.72908            0    3.2084605 7.8243725e-06         4.01         4.01     1.893386 3.4680923e-12   -112940.34   -168925.02   -168942.28     -953.709 
   29900   -114.45593   -117.56677    16.162307   -133.72908            0    3.2084605 3.1126898e-06         4.01         4.01     1.893386 1.0795233e-10   -112940.34   -168925.13   -168942.17   -953.70956 
   29950   -114.45593   -117.56677    16.162307   -133.72908            0    3.2084606 2.8776373e-06         4.01         4.01     1.893386 1.6327983e-11   -112940.34   -168925.23   -168942.08   -953.72595 
   30000   -114.45593   -117.56677    16.162307   -133.72908            0    3.2084606 3.4202123e-06         4.01         4.01     1.893386 9.4044619e-13   -112940.35   -168925.26   -168942.04   -953.73598 
   30050   -114.45593   -117.56677    16.162307   -133.72908            0    3.2084606 3.6074474e-06         4.01         4.01     1.893386 1.3344769e-10   -112940.35   -168925.34   -168941.97   -953.73583 
   30100   -114.45593   -117.56677    16.162307   -133.72908            0    3.2084606 4.1122308e-06         4.01         4.01     1.893386 1.6112384e-10   -112940.35   -168925.42   -168941.89   -953.74526 
   30150   -114.45593   -117.56677    16.162307   -133.72908            0    3.2084607 3.1717004e-06         4.01         4.01     1.893386 1.253772e-10   -112940.35   -168925.44   -168941.87   -953.74847 
   30200   -114.45593   -117.56677    16.162307   -133.72908            0    3.2084607 2.717651e-06         4.01         4.01     1.893386 1.3896628e-10   -112940.36   -168925.47   -168941.84   -953.75568 
   30250   -114.45593   -117.56677    16.162307   -133.72908            0    3.2084607 2.8139925e-06         4.01         4.01     1.893386 2.2969773e-10   -112940.36   -168925.52   -168941.79   -953.75984 
   30300   -114.45593   -117.56677    16.162308   -133.72908            0    3.2084607 3.0452819e-06         4.01         4.01     1.893386 8.2260466e-13   -112940.36   -168925.59   -168941.72    -953.7599 
   30350   -114.45593   -117.56677    16.162308   -133.72908            0    3.2084607 1.7652665e-06         4.01         4.01     1.893386 2.1352907e-11   -112940.36   -168925.61   -168941.71   -953.76324 
   30400   -114.45593   -117.56677    16.162308   -133.72908            0    3.2084607 2.3403111e-06         4.01         4.01     1.893386 3.1337534e-11   -112940.36   -168925.66   -168941.65   -953.76463 
   30450   -114.45593   -117.56677    16.162308   -133.72908            0    3.2084607 1.3958145e-05         4.01         4.01     1.893386 2.6658833e-10   -112940.36   -168925.82   -168941.49    -953.7653 
   30500   -114.45593   -117.56677    16.162308   -133.72908            0    3.2084608 2.4354228e-06         4.01         4.01     1.893386 4.384678e-11   -112940.36   -168925.72   -168941.59    -953.7694 
   30550   -114.45593   -117.56677    16.162308   -133.72908            0    3.2084608 1.8887717e-06         4.01         4.01     1.893386 4.6589616e-11   -112940.36   -168925.75   -168941.56   -953.77028 
   30600   -114.45593   -117.56677    16.162308   -133.72908            0    3.2084608 1.680693e-06         4.01         4.01     1.893386 4.8495586e-11   -112940.36   -168925.81    -168941.5   -953.77084 
   30650   -114.45593   -117.56677    16.162308   -133.72908            0    3.2084608 1.3008951e-06         4.01         4.01     1.893386 4.4538847e-12   -112940.36   -168925.84   -168941.48   -953.77183 
   30700   -114.45593   -117.56677    16.162308   -133.72908            0    3.2084608 1.3575812e-06         4.01         4.01     1.893386 4.0875808e-12   -112940.36   -168925.87   -168941.44   -953.77233 
   30750   -114.45593   -117.56677    16.162308   -133.72908            0    3.2084608 1.3037029e-06         4.01         4.01     1.893386 3.9094664e-11   -112940.36   -168925.91   -168941.41    -953.7732 
   30800   -114.45593   -117.56677    16.162308   -133.72908            0    3.2084608 1.8089318e-06         4.01         4.01     1.893386 6.7138276e-14   -112940.36   -168925.95   -168941.36   -953.77343 
   30850   -114.45593   -117.56677    16.162308   -133.72908            0    3.2084608 1.4263209e-06         4.01         4.01     1.893386 2.4796092e-13   -112940.36   -168925.96   -168941.35    -953.7737 
   30888   -114.45593   -117.56677    16.162308   -133.72908            0    3.2084608 9.9037139e-07         4.01         4.01     1.893386 1.0207215e-11   -112940.36   -168925.97   -168941.34   -953.77394 
Loop time of 8.99652 on 8 procs for 4040 steps with 10 atoms

30.5% CPU use with 8 MPI tasks x no OpenMP threads

Minimization stats:
  Stopping criterion = force tolerance
  Energy initial, next-to-last, final = 
        -114.455901952     -114.455932405     -114.455932405
  Force two-norm initial, final = 0.0453694 9.90371e-07
  Force max component initial, final = 0.0145554 3.91696e-07
  Final line search alpha, max atom move = 0 0
  Iterations, force evaluations = 4040 4040

MPI task timing breakdown:
Section |  min time  |  avg time  |  max time  |%varavg| %total
---------------------------------------------------------------
Pair    | 0.0073304  | 0.65464    | 3.3086     | 131.0 |  7.28
Bond    | 0.0019332  | 0.003567   | 0.0065769  |   2.5 |  0.04
Neigh   | 0          | 0          | 0          |   0.0 |  0.00
Comm    | 4.5053     | 7.0249     | 8.1123     |  52.7 | 78.08
Output  | 0.031675   | 0.033559   | 0.038316   |   1.2 |  0.37
Modify  | 0.0026605  | 0.0041275  | 0.0053729  |   1.6 |  0.05
Other   |            | 1.276      |            |       | 14.18

Nlocal:    1.25 ave 4 max 0 min
Histogram: 4 0 0 0 0 3 0 0 0 1
Nghost:    808.75 ave 810 max 806 min
Histogram: 1 0 0 0 0 3 0 0 0 4
Neighs:    331.625 ave 1698 max 0 min
Histogram: 5 1 0 1 0 0 0 0 0 1

Total # of neighbors = 2653
Ave neighs/atom = 265.3
Ave special neighs/atom = 1
Neighbor list builds = 0
Dangerous builds = 0
min_style quickmin
minimize 0.0 1e-06 20000 100000
WARNING: Resetting reneighboring criteria during minimization (/tmp/dan/spack-stage/spack-stage-5I_aA6/lammps-feature-CORESHELL-pol/src/min.cpp:168)
Memory usage per processor = 9.02352 Mbytes
Step TotEng E_pair E_vdwl E_coul E_long E_bond Fnorm Lx Ly Lz Temp Press Pxx Pyy Pzz 
   30888   -114.45593   -117.56677    16.162308   -133.72908            0    3.2084608 9.9037122e-07         4.01         4.01    1.8940235            0   -112902.35   -168869.12   -168884.48   -953.45293 
   30889   -114.45593   -117.56677    16.162308   -133.72908            0    3.2084608 9.9037122e-07         4.01         4.01    1.8940235 4.2701945e-13   -112902.35   -168869.12   -168884.48   -953.45293 
Loop time of 0.00851817 on 8 procs for 1 steps with 10 atoms

29.3% CPU use with 8 MPI tasks x no OpenMP threads

Minimization stats:
  Stopping criterion = force tolerance
  Energy initial, next-to-last, final = 
        -114.455932405     -114.455932405     -114.455932405
  Force two-norm initial, final = 9.90371e-07 9.90371e-07
  Force max component initial, final = 3.91695e-07 3.91695e-07
  Final line search alpha, max atom move = 0 0
  Iterations, force evaluations = 1 1

MPI task timing breakdown:
Section |  min time  |  avg time  |  max time  |%varavg| %total
---------------------------------------------------------------
Pair    | 9.119e-06  | 0.00030428 | 0.0014643  |   2.7 |  3.57
Bond    | 1.107e-06  | 1.8236e-06 | 2.778e-06  |   0.0 |  0.02
Neigh   | 0          | 0          | 0          |   0.0 |  0.00
Comm    | 0.0040958  | 0.0055194  | 0.0067137  |   0.9 | 64.80
Output  | 0          | 0          | 0          |   0.0 |  0.00
Modify  | 5.595e-06  | 8.9775e-06 | 1.3502e-05 |   0.1 |  0.11
Other   |            | 0.002684   |            |       | 31.51

Nlocal:    1.25 ave 4 max 0 min
Histogram: 4 0 0 0 0 3 0 0 0 1
Nghost:    808.75 ave 810 max 806 min
Histogram: 1 0 0 0 0 3 0 0 0 4
Neighs:    331.625 ave 1698 max 0 min
Histogram: 5 1 0 1 0 0 0 0 0 1

Total # of neighbors = 2653
Ave neighs/atom = 265.3
Ave special neighs/atom = 1
Neighbor list builds = 0
Dangerous builds = 0
unfix ef
fix ef all efield -0.0230940107676 -0.0230940107676 -0.0230940107676
fix_modify ef energy yes
min_style fire
minimize 0.0 1e-06 20000 100000
WARNING: Resetting reneighboring criteria during minimization (/tmp/dan/spack-stage/spack-stage-5I_aA6/lammps-feature-CORESHELL-pol/src/min.cpp:168)
Memory usage per processor = 9.02352 Mbytes
Step TotEng E_pair E_vdwl E_coul E_long E_bond Fnorm Lx Ly Lz Temp Press Pxx Pyy Pzz 
   30889   -114.46988   -117.56677    16.162308   -133.72908            0    3.2084608   0.04536942         4.01         4.01    1.8940235            0   -112902.35   -168869.12   -168884.48   -953.45293 
   30900   -114.46988   -117.57068    16.168063   -133.73874            0    3.2124655  0.024183711         4.01         4.01    1.8940235 0.00083372647    -112671.4   -168565.46   -168582.81   -865.94421 
   30950   -114.46989    -117.5732    16.174071   -133.74727            0    3.2150517  0.016650984         4.01         4.01    1.8940235 0.00078651287   -112406.23   -168239.03   -168256.38   -723.29088 
   31000    -114.4699    -117.5728    16.176097   -133.74889            0    3.2146914  0.010150118         4.01         4.01    1.8940235 5.0940104e-07   -112269.99   -168101.02   -168115.38   -593.56411 
   31050    -114.4699   -117.57356    16.176099   -133.74966            0    3.2154875 0.0093326595         4.01         4.01    1.8940235 0.00064009094   -112343.08   -168154.46   -168172.25   -702.52712 
   31100    -114.4699   -117.57358      16.1768   -133.75038            0    3.2155348 0.0075082066         4.01         4.01    1.8940235 0.00014413551   -112329.16   -168116.08   -168128.63   -742.77765 
   31150    -114.4699   -117.57394    16.176803   -133.75075            0     3.215925 0.0070666107         4.01         4.01    1.8940235 0.00026343787    -112376.6   -168159.84   -168182.45   -787.51986 
   31200    -114.4699   -117.57419     16.17687   -133.75106            0    3.2161928 0.0098029304         4.01         4.01    1.8940235 0.0012244757   -112405.27   -168186.93   -168233.11   -795.77207 
   31250   -114.46991   -117.57417    16.177247   -133.75142            0    3.2161987 0.0057217687         4.01         4.01    1.8940235 0.00075885052   -112403.37   -168159.82   -168193.67   -856.63194 
   31300   -114.46991   -117.57443    16.177171    -133.7516            0     3.216473  0.017052122         4.01         4.01    1.8940235 7.3181171e-05   -112440.37    -168128.5   -168360.84   -831.78554 
   31350   -114.46991   -117.57428    16.177387   -133.75166            0    3.2163298 0.0034708554         4.01         4.01    1.8940235 8.0215131e-05    -112428.4   -168164.58   -168185.71   -934.90085 
   31400   -114.46991   -117.57434     16.17742   -133.75176            0    3.2164088 0.0042293561         4.01         4.01    1.8940235 0.00018106888   -112441.88   -168152.86    -168215.7   -957.09027 
   31450   -114.46991   -117.57437    16.177463   -133.75184            0    3.2164488 0.0027665873         4.01         4.01    1.8940235 9.1238974e-05   -112448.44   -168171.35   -168198.48   -975.50939 
   31500   -114.46991   -117.57443    16.177531   -133.75196            0    3.2165146 0.0038147299         4.01         4.01    1.8940235 0.0001807976   -112457.98   -168208.06   -168165.18   -1000.7002 
   31550   -114.46991   -117.57447    16.177554   -133.75202            0    3.2165628   0.00314663         4.01         4.01    1.8940235 5.7114705e-06   -112465.77   -168166.87   -168218.13   -1012.2999 
   31600   -114.46991    -117.5745    16.177583   -133.75208            0    3.2165998 0.0016581739         4.01         4.01    1.8940235 1.5553785e-05   -112471.49   -168186.65    -168203.3   -1024.5117 
   31650   -114.46991   -117.57453    16.177618   -133.75215            0    3.2166351 0.0019651924         4.01         4.01    1.8940235 8.626172e-08   -112475.74   -168205.21   -168187.93    -1034.074 
   31700   -114.46991   -117.57455    16.177638   -133.75219            0    3.2166653 0.0012177965         4.01         4.01    1.8940235 1.1392072e-05   -112480.07   -168193.46   -168204.78   -1041.9883 
   31750   -114.46991   -117.57457    16.177659   -133.75223            0    3.2166824  0.001256615         4.01         4.01    1.8940235 2.182988e-05    -112482.4   -168190.28   -168209.13   -1047.7875 
   31800   -114.46991   -117.57458    16.177665   -133.75225            0    3.2166984 0.00097352597         4.01         4.01    1.8940235 1.6379476e-05    -112485.5   -168195.48   -168207.52   -1053.5068 
   31850   -114.46991   -117.57459     16.17768   -133.75227            0    3.2167149 0.0009406266         4.01         4.01    1.8940235 6.0608732e-06   -112487.86   -168195.18   -168210.29   -1058.1194 
   31900   -114.46991   -117.57461    16.177701   -133.75231            0    3.2167343 0.00070100791         4.01         4.01    1.8940235 4.5765967e-06   -112489.69   -168202.42   -168204.07   -1062.5872 
   31950   -114.46991   -117.57462    16.177719   -133.75234            0    3.2167502 0.0006474729         4.01         4.01    1.8940235 4.8277295e-07   -112491.32   -168198.81    -168208.6   -1066.5505 
   32000   -114.46991   -117.57464    16.177733   -133.75237            0    3.2167645 0.00058117328         4.01         4.01    1.8940235 2.9704883e-08   -112492.94   -168204.32   -168204.25   -1070.2391 
   32050   -114.46991   -117.57464     16.17774   -133.75238            0     3.216772 0.00047139164         4.01         4.01    1.8940235  2.44272e-07   -112494.01   -168203.35   -168206.06   -1072.6093 
   32100   -114.46991   -117.57465    16.177749    -133.7524            0    3.2167816 0.00043728462         4.01         4.01    1.8940235 5.1774435e-06    -112495.2   -168201.92   -168208.35   -1075.3291 
   32150   -114.46991   -117.57466    16.177761   -133.75242            0    3.2167924 0.00045473013         4.01         4.01    1.8940235 1.0947885e-08   -112496.32   -168201.57   -168209.31   -1078.0906 
   32200   -114.46991   -117.57467    16.177768   -133.75243            0    3.2167994 0.00029700398         4.01         4.01    1.8940235 1.2708988e-07   -112497.05   -168204.23   -168207.33   -1079.5746 
   32250   -114.46991   -117.57467    16.177776   -133.75245            0    3.2168051 0.00025343204         4.01         4.01    1.8940235 2.8422977e-07   -112497.64   -168204.62    -168207.2   -1081.0845 
   32300   -114.46991   -117.57467    16.177778   -133.75245            0    3.2168082 0.00023850911         4.01         4.01    1.8940235 4.1874009e-07   -112498.19   -168204.39   -168207.94   -1082.2259 
   32350   -114.46991   -117.57468    16.177784   -133.75246            0    3.2168137 0.00019384118         4.01         4.01    1.8940235 1.5535682e-07   -112498.68   -168205.79   -168206.81   -1083.4419 
   32400   -114.46991   -117.57468     16.17779   -133.75247            0     3.216818 0.00017682557         4.01         4.01    1.8940235 1.5559284e-10   -112499.13   -168205.23   -168207.58   -1084.5637 
   32450   -114.46991   -117.57468    16.177796   -133.75248            0    3.2168219 0.00015533565         4.01         4.01    1.8940235 7.5200321e-07    -112499.4   -168206.42   -168206.32   -1085.4487 
   32500   -114.46991   -117.57469    16.177799   -133.75249            0    3.2168239 0.00061195981         4.01         4.01    1.8940235 1.2366467e-06   -112499.66   -168211.64   -168201.36   -1085.9757 
   32550   -114.46991   -117.57469      16.1778   -133.75249            0    3.2168272  0.000123499         4.01         4.01    1.8940235 2.0439594e-10   -112500.13   -168206.16   -168207.25   -1086.9878 
   32600   -114.46991   -117.57469    16.177802   -133.75249            0     3.216829 9.073798e-05         4.01         4.01    1.8940235 1.0525157e-07    -112500.3    -168206.9   -168206.56   -1087.4487 
   32650   -114.46991   -117.57469    16.177806    -133.7525            0    3.2168323 0.00010760032         4.01         4.01    1.8940235 1.0805876e-07   -112500.53   -168206.47      -168207   -1088.1275 
   32700   -114.46991   -117.57469    16.177807    -133.7525            0    3.2168333 8.0730955e-05         4.01         4.01    1.8940235 8.3737239e-08   -112500.68   -168206.93   -168206.68    -1088.437 
   32750   -114.46991    -117.5747    16.177809    -133.7525            0    3.2168348 8.217452e-05         4.01         4.01    1.8940235 5.0730718e-08   -112500.83   -168206.98   -168206.71   -1088.8093 
   32800   -114.46991    -117.5747     16.17781   -133.75251            0    3.2168354 5.5646121e-05         4.01         4.01    1.8940235 3.9490333e-08   -112500.91   -168207.43    -168206.3   -1088.9912 
   32850   -114.46991    -117.5747    16.177811   -133.75251            0    3.2168366 5.1005444e-05         4.01         4.01    1.8940235 1.4909257e-09   -112501.01      -168208   -168205.77   -1089.2513 
   32900   -114.46991    -117.5747    16.177812   -133.75251            0    3.2168376 4.0173383e-05         4.01         4.01    1.8940235 6.4362606e-10   -112501.12   -168207.82   -168206.02    -1089.535 
   32950   -114.46991    -117.5747    16.177813   -133.75251            0    3.2168383 4.2125948e-05         4.01         4.01    1.8940235 2.5056707e-08    -112501.2   -168207.83   -168206.04   -1089.7127 
   33000   -114.46991    -117.5747    16.177814   -133.75251            0    3.2168392 4.0300315e-05         4.01         4.01    1.8940235 2.1199442e-08   -112501.27   -168208.44   -168205.48   -1089.9071 
   33050   -114.46991    -117.5747    16.177815   -133.75252            0    3.2168399 3.023393e-05         4.01         4.01    1.8940235 1.8279025e-08   -112501.32   -168208.44   -168205.47    -1090.059 
   33100   -114.46991    -117.5747    16.177815   -133.75252            0    3.2168402 4.0068356e-05         4.01         4.01    1.8940235 4.0591604e-10   -112501.37   -168208.69   -168205.26   -1090.1523 
   33150   -114.46991    -117.5747    16.177816   -133.75252            0    3.2168406 2.9138903e-05         4.01         4.01    1.8940235 6.8897674e-09    -112501.4   -168208.68   -168205.28    -1090.247 
   33200   -114.46991    -117.5747    16.177816   -133.75252            0     3.216841 1.8786958e-05         4.01         4.01    1.8940235 7.1842854e-09   -112501.44   -168208.64   -168205.34   -1090.3395 
   33250   -114.46991    -117.5747    16.177817   -133.75252            0    3.2168414 1.5496462e-05         4.01         4.01    1.8940235 1.654547e-10   -112501.48   -168208.71   -168205.29   -1090.4338 
   33300   -114.46991    -117.5747    16.177817   -133.75252            0    3.2168418 2.3983981e-05         4.01         4.01    1.8940235 8.2343192e-09   -112501.51   -168208.99   -168205.01   -1090.5178 
   33350   -114.46991    -117.5747    16.177818   -133.75252            0     3.216842 1.1718456e-05         4.01         4.01    1.8940235 5.5265773e-09   -112501.53   -168208.88   -168205.14   -1090.5816 
   33400   -114.46991    -117.5747    16.177818   -133.75252            0    3.2168422 1.0397682e-05         4.01         4.01    1.8940235 8.8746379e-10   -112501.56   -168208.95   -168205.08    -1090.638 
   33450   -114.46991    -117.5747    16.177818   -133.75252            0    3.2168424 9.4400425e-06         4.01         4.01    1.8940235 5.6387995e-13   -112501.57    -168209.1   -168204.93   -1090.6789 
   33500   -114.46991    -117.5747    16.177818   -133.75252            0    3.2168426 7.6792748e-06         4.01         4.01    1.8940235 5.9096197e-12   -112501.59   -168209.15    -168204.9   -1090.7231 
   33550   -114.46991    -117.5747    16.177819   -133.75252            0    3.2168427 7.688169e-06         4.01         4.01    1.8940235  4.45388e-10    -112501.6   -168209.28   -168204.77   -1090.7517 
   33600   -114.46991    -117.5747    16.177819   -133.75252            0    3.2168428 6.034701e-06         4.01         4.01    1.8940235 4.5293225e-10   -112501.61   -168209.28   -168204.77    -1090.777 
   33650   -114.46991    -117.5747    16.177819   -133.75252            0    3.2168429 5.332789e-06         4.01         4.01    1.8940235 4.2787311e-10   -112501.62   -168209.36    -168204.7   -1090.8074 
   33700   -114.46991    -117.5747    16.177819   -133.75252            0     3.216843 5.1143642e-06         4.01         4.01    1.8940235 3.8018426e-10   -112501.63   -168209.44   -168204.62   -1090.8284 
   33750   -114.46991    -117.5747    16.177819   -133.75252            0    3.2168431 4.4470497e-06         4.01         4.01    1.8940235 1.7022795e-10   -112501.64    -168209.5   -168204.57   -1090.8484 
   33800   -114.46991    -117.5747    16.177819   -133.75252            0    3.2168432 7.3607792e-06         4.01         4.01    1.8940235 3.7440299e-10   -112501.65   -168209.53   -168204.54   -1090.8811 
   33850   -114.46991    -117.5747    16.177819   -133.75252            0    3.2168432 3.6525801e-06         4.01         4.01    1.8940235 6.3626566e-11   -112501.65   -168209.65   -168204.43   -1090.8846 
   33900   -114.46991    -117.5747    16.177819   -133.75252            0    3.2168433 3.3032288e-06         4.01         4.01    1.8940235 2.0657427e-11   -112501.66   -168209.71   -168204.37   -1090.9003 
   33950   -114.46991    -117.5747    16.177819   -133.75252            0    3.2168433 3.6711653e-06         4.01         4.01    1.8940235 6.5173568e-11   -112501.66   -168209.78    -168204.3   -1090.9087 
   34000   -114.46991    -117.5747    16.177819   -133.75252            0    3.2168434 3.1943634e-06         4.01         4.01    1.8940235 6.0793696e-14   -112501.67   -168209.86   -168204.22   -1090.9247 
   34050   -114.46991    -117.5747    16.177819   -133.75252            0    3.2168435 9.1072059e-06         4.01         4.01    1.8940235 3.2190715e-10   -112501.67   -168209.84   -168204.24   -1090.9383 
   34100   -114.46991    -117.5747     16.17782   -133.75252            0    3.2168435 2.3162048e-06         4.01         4.01    1.8940235 5.8798365e-11   -112501.67   -168209.96   -168204.12   -1090.9386 
   34150   -114.46991    -117.5747     16.17782   -133.75252            0    3.2168435 2.4791531e-06         4.01         4.01    1.8940235 6.2054456e-11   -112501.67   -168210.01   -168204.08   -1090.9418 
   34200   -114.46991    -117.5747     16.17782   -133.75252            0    3.2168435 2.070578e-06         4.01         4.01    1.8940235 1.849411e-11   -112501.68   -168210.06   -168204.02   -1090.9479 
   34250   -114.46991    -117.5747     16.17782   -133.75252            0    3.2168435 2.2033359e-06         4.01         4.01    1.8940235 9.2998733e-12   -112501.68   -168210.11   -168203.97   -1090.9515 
   34300   -114.46991    -117.5747     16.17782   -133.75252            0    3.2168436 1.9013861e-06         4.01         4.01    1.8940235 8.5145842e-12   -112501.68   -168210.15   -168203.93   -1090.9549 
   34350   -114.46991    -117.5747     16.17782   -133.75252            0    3.2168436 2.1483543e-06         4.01         4.01    1.8940235 3.5319134e-13   -112501.68   -168210.18   -168203.91    -1090.958 
   34400   -114.46991    -117.5747     16.17782   -133.75252            0    3.2168436 1.708125e-06         4.01         4.01    1.8940235 5.0040175e-12   -112501.68   -168210.22   -168203.86   -1090.9591 
   34450   -114.46991    -117.5747     16.17782   -133.75252            0    3.2168436 1.6342674e-06         4.01         4.01    1.8940235 8.6197022e-11   -112501.68   -168210.26   -168203.83   -1090.9609 
   34500   -114.46991    -117.5747     16.17782   -133.75252            0    3.2168436 3.2542047e-06         4.01         4.01    1.8940235 7.8840857e-11   -112501.68   -168210.33   -168203.76    -1090.962 
   34550   -114.46991    -117.5747     16.17782   -133.75252            0    3.2168436 1.4710268e-06         4.01         4.01    1.8940235 4.3787837e-12   -112501.68   -168210.34   -168203.75   -1090.9642 
   34600   -114.46991    -117.5747     16.17782   -133.75252            0    3.2168436 1.381914e-06         4.01         4.01    1.8940235 4.6054781e-13   -112501.68   -168210.37   -168203.71   -1090.9654 
   34650   -114.46991    -117.5747     16.17782   -133.75252            0    3.2168436 1.467566e-06         4.01         4.01    1.8940235 4.5839137e-11   -112501.68   -168210.41   -168203.67   -1090.9665 
   34700   -114.46991    -117.5747     16.17782   -133.75252            0    3.2168436 2.0365183e-06         4.01         4.01    1.8940235 8.4800354e-14   -112501.68   -168210.46   -168203.63   -1090.9667 
   34750   -114.46991    -117.5747     16.17782   -133.75252            0    3.2168436 1.618781e-06         4.01         4.01    1.8940235 3.2059828e-13   -112501.68   -168210.47   -168203.61   -1090.9672 
   34800   -114.46991    -117.5747     16.17782   -133.75252            0    3.2168436 3.0343908e-06         4.01         4.01    1.8940235 1.0824609e-10   -112501.68   -168210.53   -168203.56    -1090.968 
   34850   -114.46991    -117.5747     16.17782   -133.75252            0    3.2168436 1.2887936e-06         4.01         4.01    1.8940235 6.6010232e-12   -112501.68   -168210.54   -168203.54   -1090.9685 
   34900   -114.46991    -117.5747     16.17782   -133.75252            0    3.2168436 1.2979868e-06         4.01         4.01    1.8940235 5.1551595e-12   -112501.68   -168210.57   -168203.52   -1090.9693 
   34907   -114.46991    -117.5747     16.17782   -133.75252            0    3.2168436 9.9539522e-07         4.01         4.01    1.8940235 3.239024e-12   -112501.68   -168210.58   -168203.51    -1090.969 
Loop time of 9.83603 on 8 procs for 4018 steps with 10 atoms

28.9% CPU use with 8 MPI tasks x no OpenMP threads

Minimization stats:
  Stopping criterion = force tolerance
  Energy initial, next-to-last, final = 
        -114.469877958     -114.469908265     -114.469908265
  Force two-norm initial, final = 0.0453694 9.95395e-07
  Force max component initial, final = 0.0145553 4.00337e-07
  Final line search alpha, max atom move = 0 0
  Iterations, force evaluations = 4018 4018

MPI task timing breakdown:
Section |  min time  |  avg time  |  max time  |%varavg| %total
---------------------------------------------------------------
Pair    | 0.0076105  | 0.65144    | 3.2751     | 130.0 |  6.62
Bond    | 0.0021645  | 0.0031532  | 0.004456   |   1.6 |  0.03
Neigh   | 0          | 0          | 0          |   0.0 |  0.00
Comm    | 4.1118     | 7.5873     | 8.8715     |  60.4 | 77.14
Output  | 0.059167   | 0.061572   | 0.066416   |   0.8 |  0.63
Modify  | 0.0024658  | 0.0037557  | 0.0051159  |   1.9 |  0.04
Other   |            | 1.529      |            |       | 15.54

Nlocal:    1.25 ave 4 max 0 min
Histogram: 4 0 0 0 0 3 0 0 0 1
Nghost:    808.75 ave 810 max 806 min
Histogram: 1 0 0 0 0 3 0 0 0 4
Neighs:    331.625 ave 1698 max 0 min
Histogram: 5 1 0 1 0 0 0 0 0 1

Total # of neighbors = 2653
Ave neighs/atom = 265.3
Ave special neighs/atom = 1
Neighbor list builds = 0
Dangerous builds = 0
min_style quickmin
minimize 0.0 1e-06 20000 100000
WARNING: Resetting reneighboring criteria during minimization (/tmp/dan/spack-stage/spack-stage-5I_aA6/lammps-feature-CORESHELL-pol/src/min.cpp:168)
Memory usage per processor = 9.02352 Mbytes
Step TotEng E_pair E_vdwl E_coul E_long E_bond Fnorm Lx Ly Lz Temp Press Pxx Pyy Pzz 
   34907   -114.46991    -117.5747     16.17782   -133.75252            0    3.2168436 9.9539494e-07         4.01         4.01    1.8946579            0   -112464.01   -168154.25   -168147.18   -1090.6037 
   34908   -114.46991    -117.5747     16.17782   -133.75252            0    3.2168436 9.9539495e-07         4.01         4.01    1.8946579 3.6251799e-13   -112464.01   -168154.25   -168147.18   -1090.6037 
Loop time of 0.00744903 on 8 procs for 1 steps with 10 atoms

20.1% CPU use with 8 MPI tasks x no OpenMP threads

Minimization stats:
  Stopping criterion = force tolerance
  Energy initial, next-to-last, final = 
        -114.469908265     -114.469908265     -114.469908265
  Force two-norm initial, final = 9.95395e-07 9.95395e-07
  Force max component initial, final = 4.00337e-07 4.00337e-07
  Final line search alpha, max atom move = 0 0
  Iterations, force evaluations = 1 1

MPI task timing breakdown:
Section |  min time  |  avg time  |  max time  |%varavg| %total
---------------------------------------------------------------
Pair    | 1.4129e-05 | 0.00041784 | 0.0017944  |   2.9 |  5.61
Bond    | 2.288e-06  | 5.1599e-06 | 1.1947e-05 |   0.1 |  0.07
Neigh   | 0          | 0          | 0          |   0.0 |  0.00
Comm    | 0.0024534  | 0.0040754  | 0.0047966  |   1.3 | 54.71
Output  | 0          | 0          | 0          |   0.0 |  0.00
Modify  | 1.627e-06  | 4.8919e-06 | 8.89e-06   |   0.1 |  0.07
Other   |            | 0.002946   |            |       | 39.55

Nlocal:    1.25 ave 4 max 0 min
Histogram: 4 0 0 0 0 3 0 0 0 1
Nghost:    808.75 ave 810 max 806 min
Histogram: 1 0 0 0 0 3 0 0 0 4
Neighs:    331.625 ave 1698 max 0 min
Histogram: 5 1 0 1 0 0 0 0 0 1

Total # of neighbors = 2653
Ave neighs/atom = 265.3
Ave special neighs/atom = 1
Neighbor list builds = 0
Dangerous builds = 0
unfix ef
fix ef all efield -0.0259807621135 -0.0259807621135 -0.0259807621135
fix_modify ef energy yes
min_style fire
minimize 0.0 1e-06 20000 100000
WARNING: Resetting reneighboring criteria during minimization (/tmp/dan/spack-stage/spack-stage-5I_aA6/lammps-feature-CORESHELL-pol/src/min.cpp:168)
Memory usage per processor = 9.02352 Mbytes
Step TotEng E_pair E_vdwl E_coul E_long E_bond Fnorm Lx Ly Lz Temp Press Pxx Pyy Pzz 
   34908   -114.48391    -117.5747     16.17782   -133.75252            0    3.2168436  0.045369421         4.01         4.01    1.8946579            0   -112464.01   -168154.25   -168147.18   -1090.6037 
   34950   -114.48393   -117.58017     16.19047   -133.77064            0     3.222493  0.015003436         4.01         4.01    1.8946579 0.00051387959   -111825.12   -167410.51   -167404.44   -660.39374 
   35000   -114.48393   -117.58044    16.191434   -133.77188            0    3.2228054  0.011744416         4.01         4.01    1.8946579 0.00059900016   -111815.54   -167385.35   -167377.46   -683.80934 
   35050   -114.48393   -117.58217    16.190971   -133.77314            0    3.2245757  0.019160206         4.01         4.01    1.8946579 0.0011494026   -111988.74   -167531.36   -167533.67   -901.20475 
   35100   -114.48394   -117.58156    16.192108   -133.77366            0    3.2239951 0.0075695676         4.01         4.01    1.8946579 0.00064843806   -111902.82   -167423.14   -167417.43   -867.89135 
   35150   -114.48394   -117.58175    16.192403   -133.77415            0    3.2242159 0.0065929303         4.01         4.01    1.8946579 5.9006774e-05   -111920.23   -167425.52   -167419.49   -915.67574 
   35200   -114.48394   -117.58192    16.192618   -133.77453            0    3.2244162 0.0056715365         4.01         4.01    1.8946579 1.1593269e-05   -111944.05   -167433.04   -167428.18   -970.93557 
   35250   -114.48394   -117.58188    16.192809   -133.77469            0    3.2243966 0.0067945661         4.01         4.01    1.8946579 2.6748646e-06   -111948.59      -167425   -167379.76   -1041.0011 
   35300   -114.48394   -117.58202      16.1928   -133.77482            0    3.2245513 0.0043631818         4.01         4.01    1.8946579 0.00013590509   -111970.22   -167444.86    -167418.4   -1047.3973 
   35350   -114.48394   -117.58215    16.192841     -133.775            0    3.2247067 0.0037267682         4.01         4.01    1.8946579 2.3433358e-05   -111989.95   -167453.24   -167450.98   -1065.6327 
   35400   -114.48394   -117.58219      16.1929   -133.77509            0    3.2247581   0.00325979         4.01         4.01    1.8946579 4.7008072e-05    -112000.2   -167466.83    -167438.5   -1095.2694 
   35450   -114.48394   -117.58226    16.192924   -133.77518            0    3.2248373 0.0027597206         4.01         4.01    1.8946579 5.6375823e-08    -112013.5   -167461.41   -167466.67   -1112.4146 
   35500   -114.48394    -117.5823    16.192989   -133.77529            0      3.22489 0.0027054687         4.01         4.01    1.8946579 5.3673078e-07   -112019.86   -167483.18   -167444.31   -1132.0806 
   35550   -114.48394   -117.58236    16.193021   -133.77538            0    3.2249545  0.003680551         4.01         4.01    1.8946579 6.5184152e-07   -112028.73   -167451.13   -167492.05   -1142.9955 
   35600   -114.48394   -117.58238     16.19305   -133.77543            0    3.2249825 0.0019227901         4.01         4.01    1.8946579 3.3017223e-05   -112033.15   -167470.93   -167473.32   -1155.1821 
   35650   -114.48394   -117.58241    16.193082   -133.77549            0    3.2250155 0.0015811367         4.01         4.01    1.8946579 1.9846861e-06   -112037.46   -167485.64   -167461.33   -1165.4041 
   35700   -114.48394   -117.58244    16.193118   -133.77556            0    3.2250577  0.001328381         4.01         4.01    1.8946579 2.9693123e-07   -112042.68   -167486.62   -167464.86   -1176.5768 
   35750   -114.48394   -117.58246    16.193133   -133.77559            0    3.2250785 0.0014767119         4.01         4.01    1.8946579 4.9276634e-05   -112046.46   -167477.26   -167477.93   -1184.1891 
   35800   -114.48394   -117.58247    16.193153   -133.77563            0    3.2251007 0.0023287795         4.01         4.01    1.8946579 5.8068419e-07   -112050.03   -167506.56   -167452.37   -1191.1608 
   35850   -114.48394   -117.58249     16.19317   -133.77566            0    3.2251244 0.00088482824         4.01         4.01    1.8946579 1.0074641e-06    -112052.8   -167486.52    -167474.5   -1197.3676 
   35900   -114.48394    -117.5825    16.193185   -133.77569            0     3.225137 0.00082277887         4.01         4.01    1.8946579 3.3971364e-06   -112054.48   -167494.62   -167467.86   -1200.9413 
   35950   -114.48394   -117.58251    16.193196   -133.77571            0    3.2251505 0.00064212289         4.01         4.01    1.8946579 2.0396499e-06   -112056.13   -167493.48   -167470.55   -1204.3553 
   36000   -114.48394   -117.58253    16.193212   -133.77574            0    3.2251648 0.00056234036         4.01         4.01    1.8946579 2.4196184e-06   -112057.59   -167489.59   -167475.29   -1207.8984 
   36050   -114.48394   -117.58254    16.193224   -133.77576            0    3.2251766 0.00058212484         4.01         4.01    1.8946579 5.1935745e-09   -112058.98   -167496.13   -167469.75   -1211.0773 
   36100   -114.48394   -117.58255    16.193238   -133.77578            0    3.2251889 0.00095980493         4.01         4.01    1.8946579 2.303144e-06      -112060   -167500.76    -167465.6    -1213.635 
   36150   -114.48394   -117.58255    16.193247    -133.7758            0    3.2251972 0.0005056011         4.01         4.01    1.8946579 5.9480287e-06   -112060.92   -167497.04   -167469.96   -1215.7636 
   36200   -114.48394   -117.58256    16.193252   -133.77581            0    3.2252019 0.00030349063         4.01         4.01    1.8946579 6.8055568e-08   -112061.53   -167492.95   -167474.52   -1217.1206 
   36250   -114.48394   -117.58257    16.193263   -133.77583            0    3.2252116 0.00038513876         4.01         4.01    1.8946579 6.8197499e-09   -112062.29   -167491.69   -167475.89   -1219.2857 
   36300   -114.48394   -117.58257    16.193266   -133.77583            0    3.2252154 0.00044656592         4.01         4.01    1.8946579 1.0625852e-06   -112062.95   -167491.35   -167476.76   -1220.7306 
   36350   -114.48394   -117.58257    16.193272   -133.77584            0    3.2252196 0.00026293349         4.01         4.01    1.8946579 7.4339299e-07   -112063.33   -167496.71   -167471.59   -1221.6886 
   36400   -114.48394   -117.58257    16.193275   -133.77585            0    3.2252229 0.00023438701         4.01         4.01    1.8946579 9.1286016e-07   -112063.72   -167493.86    -167474.8   -1222.4989 
   36450   -114.48394   -117.58258    16.193278   -133.77586            0    3.2252257 0.00015250214         4.01         4.01    1.8946579 4.9404459e-07   -112063.95   -167495.05   -167473.71    -1223.097 
   36500   -114.48394   -117.58258    16.193282   -133.77586            0    3.2252285 0.00018087552         4.01         4.01    1.8946579 2.1265845e-09   -112064.26   -167496.93   -167471.99   -1223.8825 
   36550   -114.48394   -117.58258    16.193284   -133.77586            0    3.2252302 0.00017001351         4.01         4.01    1.8946579 5.123263e-07   -112064.48   -167497.07      -167472   -1224.3712 
   36600   -114.48394   -117.58258    16.193285   -133.77587            0    3.2252322 0.00011784498         4.01         4.01    1.8946579 2.9382032e-07    -112064.7   -167495.57   -167473.65   -1224.8816 
   36650   -114.48394   -117.58258    16.193288   -133.77587            0    3.2252341 0.00014792416         4.01         4.01    1.8946579 1.6547761e-07   -112064.84   -167497.28   -167471.93   -1225.3019 
   36700   -114.48394   -117.58258    16.193291   -133.77588            0    3.2252359 7.1224952e-05         4.01         4.01    1.8946579 2.8317122e-08   -112064.95   -167496.27   -167472.98   -1225.6028 
   36750   -114.48394   -117.58259    16.193293   -133.77588            0    3.2252377 6.4803389e-05         4.01         4.01    1.8946579 4.6526451e-09    -112065.1   -167496.58   -167472.73   -1226.0091 
   36800   -114.48394   -117.58259    16.193295   -133.77588            0     3.225239 5.6441613e-05         4.01         4.01    1.8946579  8.49744e-09   -112065.22    -167496.6   -167472.74   -1226.3331 
   36850   -114.48394   -117.58259    16.193296   -133.77588            0      3.22524 5.4983325e-05         4.01         4.01    1.8946579 1.8558109e-08   -112065.33   -167497.11   -167472.28   -1226.5989 
   36900   -114.48394   -117.58259    16.193297   -133.77589            0    3.2252412 4.4153561e-05         4.01         4.01    1.8946579 5.8622127e-09   -112065.45   -167496.88   -167472.59   -1226.8665 
   36950   -114.48394   -117.58259    16.193299   -133.77589            0    3.2252422 3.4162814e-05         4.01         4.01    1.8946579 1.7317247e-08   -112065.53   -167497.19   -167472.28   -1227.1107 
   37000   -114.48394   -117.58259    16.193299   -133.77589            0    3.2252429 3.7864787e-05         4.01         4.01    1.8946579 1.5102139e-08   -112065.62   -167497.08   -167472.47   -1227.3216 
   37050   -114.48394   -117.58259      16.1933   -133.77589            0    3.2252435 2.5824281e-05         4.01         4.01    1.8946579 1.3847605e-09   -112065.68   -167497.38    -167472.2   -1227.4455 
   37100   -114.48394   -117.58259    16.193301   -133.77589            0    3.2252442 2.3425066e-05         4.01         4.01    1.8946579 6.7589021e-10   -112065.74   -167497.46   -167472.15   -1227.6145 
   37150   -114.48394   -117.58259    16.193301   -133.77589            0    3.2252444 2.5872914e-05         4.01         4.01    1.8946579 9.7849199e-09   -112065.79   -167497.48   -167472.17   -1227.7087 
   37200   -114.48394   -117.58259    16.193301   -133.77589            0    3.2252449 1.7881211e-05         4.01         4.01    1.8946579 7.2215509e-09   -112065.82   -167497.75   -167471.92   -1227.8032 
   37250   -114.48394   -117.58259    16.193302   -133.77589            0    3.2252451 3.1837796e-05         4.01         4.01    1.8946579 1.0391598e-08   -112065.86   -167498.08   -167471.61   -1227.8775 
   37300   -114.48394   -117.58259    16.193302    -133.7759            0    3.2252456 2.6416439e-05         4.01         4.01    1.8946579 5.1211468e-09   -112065.89   -167497.73   -167471.96    -1227.978 
   37350   -114.48394   -117.58259    16.193303    -133.7759            0    3.2252459 3.3017617e-05         4.01         4.01    1.8946579 7.2225971e-09   -112065.92   -167497.76   -167471.95   -1228.0513 
   37400   -114.48394   -117.58259    16.193303    -133.7759            0     3.225246 1.3993821e-05         4.01         4.01    1.8946579 8.9254343e-10   -112065.94    -167498.2   -167471.53   -1228.0799 
   37450   -114.48394   -117.58259    16.193303    -133.7759            0    3.2252462 4.3821966e-05         4.01         4.01    1.8946579 4.2629019e-10   -112065.95   -167498.57   -167471.16   -1228.1139 
   37500   -114.48394   -117.58259    16.193303    -133.7759            0    3.2252464 9.8062941e-06         4.01         4.01    1.8946579 4.2266004e-10   -112065.97   -167498.19   -167471.55   -1228.1645 
   37550   -114.48394   -117.58259    16.193303    -133.7759            0    3.2252465 8.6100072e-06         4.01         4.01    1.8946579 1.7099415e-12   -112065.98   -167498.36   -167471.39   -1228.1892 
   37600   -114.48394   -117.58259    16.193304    -133.7759            0    3.2252467 7.4018593e-06         4.01         4.01    1.8946579 1.7947836e-09   -112065.99   -167498.37   -167471.38   -1228.2316 
   37650   -114.48394   -117.58259    16.193304    -133.7759            0    3.2252468 5.7102421e-06         4.01         4.01    1.8946579 3.2458769e-12   -112066.01   -167498.44   -167471.32    -1228.258 
   37700   -114.48394   -117.58259    16.193304    -133.7759            0    3.2252468 5.9928169e-06         4.01         4.01    1.8946579 2.936113e-10   -112066.01   -167498.55   -167471.21   -1228.2718 
   37750   -114.48394   -117.58259    16.193304    -133.7759            0    3.2252469 6.6028085e-06         4.01         4.01    1.8946579 1.8903321e-10   -112066.02   -167498.65   -167471.12   -1228.2941 
   37800   -114.48394   -117.58259    16.193304    -133.7759            0    3.2252471 1.5100663e-05         4.01         4.01    1.8946579 1.1972636e-09   -112066.04   -167498.55   -167471.23   -1228.3391 
   37850   -114.48394   -117.58259    16.193304    -133.7759            0    3.2252471 5.4199749e-06         4.01         4.01    1.8946579 9.1174376e-11   -112066.04    -167498.7   -167471.07   -1228.3426 
   37900   -114.48394   -117.58259    16.193304    -133.7759            0    3.2252472 3.9528235e-06         4.01         4.01    1.8946579 8.2407041e-13   -112066.04   -167498.78      -167471   -1228.3541 
   37950   -114.48394   -117.58259    16.193304    -133.7759            0    3.2252472 4.0731758e-06         4.01         4.01    1.8946579 6.8842071e-12   -112066.05   -167498.89   -167470.89   -1228.3611 
   38000   -114.48394   -117.58259    16.193304    -133.7759            0    3.2252472 3.1747978e-06         4.01         4.01    1.8946579 1.6784701e-11   -112066.05   -167498.92   -167470.86   -1228.3687 
   38050   -114.48394   -117.58259    16.193304    -133.7759            0    3.2252473 2.5461237e-06         4.01         4.01    1.8946579 1.1876315e-11   -112066.05   -167498.95   -167470.83   -1228.3783 
   38100   -114.48394   -117.58259    16.193304    -133.7759            0    3.2252473 2.3587711e-06         4.01         4.01    1.8946579 1.4447456e-11   -112066.05   -167498.99   -167470.79   -1228.3831 
   38150   -114.48394   -117.58259    16.193304    -133.7759            0    3.2252473 2.242707e-06         4.01         4.01    1.8946579 1.4889824e-11   -112066.06   -167499.05   -167470.73     -1228.39 
   38200   -114.48394   -117.58259    16.193304    -133.7759            0    3.2252473 2.1287484e-06         4.01         4.01    1.8946579 9.0629477e-12   -112066.06    -167499.1   -167470.68   -1228.3946 
   38250   -114.48394   -117.58259    16.193304    -133.7759            0    3.2252474 1.9765909e-06         4.01         4.01    1.8946579 1.080509e-11   -112066.06   -167499.13   -167470.65   -1228.3979 
   38300   -114.48394   -117.58259    16.193304    -133.7759            0    3.2252474 2.6361673e-06         4.01         4.01    1.8946579 3.0747388e-11   -112066.06   -167499.19   -167470.59   -1228.3999 
   38350   -114.48394   -117.58259    16.193304    -133.7759            0    3.2252474 1.8277344e-06         4.01         4.01    1.8946579 9.7156674e-12   -112066.06   -167499.21   -167470.57   -1228.4045 
   38400   -114.48394   -117.58259    16.193304    -133.7759            0    3.2252474 1.8118177e-06         4.01         4.01    1.8946579 1.3749378e-12   -112066.06   -167499.25   -167470.53   -1228.4074 
   38450   -114.48394   -117.58259    16.193304    -133.7759            0    3.2252474 1.9750343e-06         4.01         4.01    1.8946579 5.1519821e-13   -112066.06   -167499.31   -167470.47   -1228.4089 
   38500   -114.48394   -117.58259    16.193304    -133.7759            0    3.2252474 1.7235278e-06         4.01         4.01    1.8946579 3.1103509e-11   -112066.06   -167499.33   -167470.45   -1228.4102 
   38550   -114.48394   -117.58259    16.193304    -133.7759            0    3.2252474 2.6878693e-06         4.01         4.01    1.8946579 4.0034262e-11   -112066.07   -167499.39   -167470.39   -1228.4119 
   38600   -114.48394   -117.58259    16.193304    -133.7759            0    3.2252474 1.9982302e-06         4.01         4.01    1.8946579 4.828861e-11   -112066.07   -167499.41   -167470.38   -1228.4131 
   38650   -114.48394   -117.58259    16.193304    -133.7759            0    3.2252474 1.7735828e-06         4.01         4.01    1.8946579 4.9929212e-11   -112066.07   -167499.44   -167470.35   -1228.4141 
   38700   -114.48394   -117.58259    16.193304    -133.7759            0    3.2252474 1.2636174e-06         4.01         4.01    1.8946579 2.6629644e-12   -112066.07   -167499.46   -167470.32   -1228.4152 
   38750   -114.48394   -117.58259    16.193304    -133.7759            0    3.2252475 1.2701636e-06         4.01         4.01    1.8946579 2.442163e-13   -112066.07   -167499.49   -167470.29   -1228.4161 
   38800   -114.48394   -117.58259    16.193304    -133.7759            0    3.2252475 1.677141e-06         4.01         4.01    1.8946579 1.6335774e-11   -112066.07   -167499.53   -167470.25   -1228.4164 
   38850   -114.48394   -117.58259    16.193304    -133.7759            0    3.2252475 2.7578553e-06         4.01         4.01    1.8946579 1.4159669e-11   -112066.07   -167499.57   -167470.22   -1228.4166 
   38889   -114.48394   -117.58259    16.193304    -133.7759            0    3.2252475 9.9571315e-07         4.01         4.01    1.8946579 3.5365588e-12   -112066.07   -167499.56   -167470.22   -1228.4173 
Loop time of 16.5222 on 8 procs for 3981 steps with 10 atoms

23.0% CPU use with 8 MPI tasks x no OpenMP threads

Minimization stats:
  Stopping criterion = force tolerance
  Energy initial, next-to-last, final = 
        -114.483914374     -114.483944541     -114.483944541
  Force two-norm initial, final = 0.0453694 9.95713e-07
  Force max component initial, final = 0.0145554 3.88334e-07
  Final line search alpha, max atom move = 0 0
  Iterations, force evaluations = 3981 3981

MPI task timing breakdown:
Section |  min time  |  avg time  |  max time  |%varavg| %total
---------------------------------------------------------------
Pair    | 0.012032   | 0.6914     | 3.4118     | 131.0 |  4.18
Bond    | 0.0029695  | 0.0045709  | 0.0066072  |   1.9 |  0.03
Neigh   | 0          | 0          | 0          |   0.0 |  0.00
Comm    | 6.3244     | 11.131     | 13.059     |  66.0 | 67.37
Output  | 0.044908   | 0.048816   | 0.0563     |   1.7 |  0.30
Modify  | 0.0041917  | 0.0060778  | 0.0077953  |   2.0 |  0.04
Other   |            | 4.641      |            |       | 28.09

Nlocal:    1.25 ave 4 max 0 min
Histogram: 4 0 0 0 0 3 0 0 0 1
Nghost:    808.75 ave 810 max 806 min
Histogram: 1 0 0 0 0 3 0 0 0 4
Neighs:    331.625 ave 1698 max 0 min
Histogram: 5 1 0 1 0 0 0 0 0 1

Total # of neighbors = 2653
Ave neighs/atom = 265.3
Ave special neighs/atom = 1
Neighbor list builds = 0
Dangerous builds = 0
min_style quickmin
minimize 0.0 1e-06 20000 100000
WARNING: Resetting reneighboring criteria during minimization (/tmp/dan/spack-stage/spack-stage-5I_aA6/lammps-feature-CORESHELL-pol/src/min.cpp:168)
Memory usage per processor = 9.02352 Mbytes
Step TotEng E_pair E_vdwl E_coul E_long E_bond Fnorm Lx Ly Lz Temp Press Pxx Pyy Pzz 
   38889   -114.48394   -117.58259    16.193304    -133.7759            0    3.2252475 9.9571312e-07         4.01         4.01    1.8952895            0   -112028.72   -167443.74   -167414.41   -1228.0079 
   38890   -114.48394   -117.58259    16.193304    -133.7759            0    3.2252475 9.9571313e-07         4.01         4.01    1.8952895 5.1631658e-13   -112028.72   -167443.74   -167414.41   -1228.0079 
Loop time of 0.0130609 on 8 procs for 1 steps with 10 atoms

19.1% CPU use with 8 MPI tasks x no OpenMP threads

Minimization stats:
  Stopping criterion = force tolerance
  Energy initial, next-to-last, final = 
        -114.483944541     -114.483944541     -114.483944541
  Force two-norm initial, final = 9.95713e-07 9.95713e-07
  Force max component initial, final = 3.88334e-07 3.88334e-07
  Final line search alpha, max atom move = 0 0
  Iterations, force evaluations = 1 1

MPI task timing breakdown:
Section |  min time  |  avg time  |  max time  |%varavg| %total
---------------------------------------------------------------
Pair    | 1.0767e-05 | 0.00038401 | 0.0019854  |   3.2 |  2.94
Bond    | 1.131e-06  | 2.2131e-06 | 3.729e-06  |   0.1 |  0.02
Neigh   | 0          | 0          | 0          |   0.0 |  0.00
Comm    | 0.002469   | 0.005061   | 0.0090611  |   3.3 | 38.75
Output  | 0          | 0          | 0          |   0.0 |  0.00
Modify  | 2.396e-06  | 5.0485e-06 | 1.3561e-05 |   0.2 |  0.04
Other   |            | 0.007609   |            |       | 58.26

Nlocal:    1.25 ave 4 max 0 min
Histogram: 4 0 0 0 0 3 0 0 0 1
Nghost:    808.75 ave 810 max 806 min
Histogram: 1 0 0 0 0 3 0 0 0 4
Neighs:    331.625 ave 1698 max 0 min
Histogram: 5 1 0 1 0 0 0 0 0 1

Total # of neighbors = 2653
Ave neighs/atom = 265.3
Ave special neighs/atom = 1
Neighbor list builds = 0
Dangerous builds = 0
unfix ef
fix ef all efield -0.0288675134595 -0.0288675134595 -0.0288675134595
fix_modify ef energy yes
min_style fire
minimize 0.0 1e-06 20000 100000
WARNING: Resetting reneighboring criteria during minimization (/tmp/dan/spack-stage/spack-stage-5I_aA6/lammps-feature-CORESHELL-pol/src/min.cpp:168)
Memory usage per processor = 9.02352 Mbytes
Step TotEng E_pair E_vdwl E_coul E_long E_bond Fnorm Lx Ly Lz Temp Press Pxx Pyy Pzz 
   38890   -114.49801   -117.58259    16.193304    -133.7759            0    3.2252475  0.045369424         4.01         4.01    1.8952895            0   -112028.72   -167443.74   -167414.41   -1228.0079 
   38900   -114.49802   -117.58644    16.199302   -133.78574            0    3.2292224  0.025603916         4.01         4.01    1.8952895 0.00045487328   -111776.58   -167120.73   -167093.41   -1115.6104 
   38950   -114.49803   -117.58955    16.204545   -133.79409            0    3.2324149  0.024748996         4.01         4.01    1.8952895 0.00033855939   -111603.79   -166876.81   -166850.91   -1083.6708 
   39000   -114.49803   -117.58858    16.207079   -133.79565            0    3.2314918  0.010236575         4.01         4.01    1.8952895 0.0013420643    -111399.4   -166676.72   -166646.03   -875.45445 
   39050   -114.49803   -117.58917    16.207205   -133.79637            0    3.2321195 0.0086651127         4.01         4.01    1.8952895 0.00019287135   -111453.25   -166713.89   -166685.44   -960.42866 
   39100   -114.49803   -117.58974    16.207323   -133.79706            0    3.2327272  0.010834393         4.01         4.01    1.8952895 0.0024070284   -111510.11    -166763.9    -166744.3   -1022.1304 
   39150   -114.49804   -117.58904    16.208419   -133.79746            0    3.2320669  0.015554338         4.01         4.01    1.8952895 2.6475229e-05   -111427.21    -166622.1   -166560.74   -1098.7984 
   39200   -114.49804   -117.58983    16.208001   -133.79783            0    3.2328883 0.0060226734         4.01         4.01    1.8952895 5.8223774e-05    -111524.5   -166740.47   -166718.39   -1114.6391 
   39250   -114.49804    -117.5899    16.208081   -133.79798            0    3.2329784 0.0053680629         4.01         4.01    1.8952895 0.00010503036    -111536.8   -166745.68   -166728.43   -1136.3023 
   39300   -114.49804   -117.58985    16.208227   -133.79808            0    3.2329444 0.0060413874         4.01         4.01    1.8952895 0.00062940849   -111541.01   -166747.94   -166666.56   -1208.5193 
   39350   -114.49804   -117.59002    16.208234   -133.79825            0    3.2331307 0.0045114896         4.01         4.01    1.8952895 9.0432041e-07   -111564.55   -166741.12   -166746.34   -1206.1917 
   39400   -114.49804   -117.59006    16.208327   -133.79839            0    3.2331913 0.0031301256         4.01         4.01    1.8952895 8.2212778e-06   -111570.88   -166755.99   -166726.48   -1230.1573 
   39450   -114.49804   -117.59012    16.208423   -133.79854            0    3.2332623 0.0033143241         4.01         4.01    1.8952895 6.0782094e-05   -111579.46   -166778.98   -166704.81    -1254.584 
   39500   -114.49804   -117.59016    16.208431   -133.79859            0    3.2333175 0.0028655954         4.01         4.01    1.8952895 5.4411291e-05   -111591.23   -166783.77   -166714.71   -1275.2192 
   39550   -114.49804   -117.59023    16.208469    -133.7987            0    3.2333963  0.008536557         4.01         4.01    1.8952895 1.6873643e-05   -111600.03   -166702.19   -166811.52   -1286.3736 
   39600   -114.49804   -117.59023    16.208491   -133.79872            0    3.2333994 0.0018398026         4.01         4.01    1.8952895 3.6320363e-05   -111602.55   -166765.65   -166746.39   -1295.6056 
   39650   -114.49804   -117.59027    16.208532    -133.7988            0     3.233445 0.0014627568         4.01         4.01    1.8952895 1.1937599e-06   -111607.58   -166780.96   -166734.79   -1306.9844 
   39700   -114.49804   -117.59028    16.208548   -133.79883            0    3.2334668 0.0012617922         4.01         4.01    1.8952895 3.1511118e-05   -111611.22   -166781.07   -166737.71   -1314.8882 
   39750   -114.49804    -117.5903    16.208574   -133.79888            0    3.2334922 0.0011499866         4.01         4.01    1.8952895 8.3631169e-06   -111613.79   -166783.09   -166737.97   -1320.3159 
   39800   -114.49804   -117.59032    16.208601   -133.79892            0    3.2335142 0.0010979426         4.01         4.01    1.8952895 1.1508919e-05    -111616.2   -166775.46   -166747.06    -1326.089 
   39850   -114.49804   -117.59034    16.208626   -133.79897            0    3.2335369 0.00096232698         4.01         4.01    1.8952895 2.3120974e-07   -111618.33   -166786.16   -166737.57   -1331.2637 
   39900   -114.49804   -117.59035    16.208638   -133.79899            0    3.2335549 0.00083294453         4.01         4.01    1.8952895 8.0901676e-09   -111620.92   -166778.93   -166747.14   -1336.6738 
   39950   -114.49804   -117.59037    16.208655   -133.79902            0    3.2335722 0.0009122816         4.01         4.01    1.8952895 9.2901049e-08   -111622.92   -166789.93   -166737.52   -1341.3074 
   40000   -114.49804   -117.59038    16.208666   -133.79904            0    3.2335839 0.00053360912         4.01         4.01    1.8952895 3.5855482e-06   -111624.23   -166784.79   -166743.74   -1344.1424 
   40050   -114.49804   -117.59039    16.208681   -133.79907            0    3.2335967 0.00046977536         4.01         4.01    1.8952895 3.1343272e-06   -111625.51   -166786.31   -166742.95   -1347.2678 
   40100   -114.49804    -117.5904    16.208693   -133.79909            0    3.2336078 0.00040766592         4.01         4.01    1.8952895 2.7249982e-07   -111626.56   -166786.59   -166743.28   -1349.8026 
   40150   -114.49804   -117.59041    16.208706   -133.79911            0    3.2336202 0.00043172479         4.01         4.01    1.8952895 1.0459833e-07   -111627.71   -166788.76   -166741.66   -1352.7281 
   40200   -114.49804   -117.59041    16.208713   -133.79913            0    3.2336272 0.00031603329         4.01         4.01    1.8952895 1.2132339e-07    -111628.6   -166785.93    -166745.3   -1354.5738 
   40250   -114.49804   -117.59042    16.208718   -133.79913            0     3.233631 0.00025108883         4.01         4.01    1.8952895 3.2243809e-07   -111629.11   -166787.39   -166744.13   -1355.8069 
   40300   -114.49804   -117.59042    16.208728   -133.79915            0    3.2336393 0.00021752255         4.01         4.01    1.8952895 1.4667913e-07   -111629.79   -166787.67   -166744.09   -1357.6153 
   40350   -114.49804   -117.59043     16.20873   -133.79916            0    3.2336423 0.00019927877         4.01         4.01    1.8952895 1.2573406e-07   -111630.32   -166788.53   -166743.77   -1358.6515 
   40400   -114.49804   -117.59043    16.208735   -133.79916            0    3.2336466 0.00017854216         4.01         4.01    1.8952895 1.4891011e-07   -111630.74    -166787.7   -166744.82    -1359.696 
   40450   -114.49804   -117.59043    16.208739   -133.79917            0    3.2336502 0.00015498626         4.01         4.01    1.8952895 1.2829274e-07   -111631.13   -166789.25   -166743.53   -1360.6251 
   40500   -114.49804   -117.59043    16.208742   -133.79918            0    3.2336534 0.00013144988         4.01         4.01    1.8952895 1.9794066e-07   -111631.49   -166788.33   -166744.67   -1361.4633 
   40550   -114.49804   -117.59044    16.208747   -133.79918            0    3.2336574 0.00023672156         4.01         4.01    1.8952895 1.336988e-07   -111631.79   -166787.33   -166745.83   -1362.2141 
   40600   -114.49804   -117.59044    16.208748   -133.79919            0    3.2336586 9.3591568e-05         4.01         4.01    1.8952895 3.7191864e-09   -111631.93   -166789.62   -166743.58   -1362.6098 
   40650   -114.49804   -117.59044    16.208752   -133.79919            0    3.2336616 9.8064281e-05         4.01         4.01    1.8952895 5.4852584e-08   -111632.17   -166790.06   -166743.19   -1363.2717 
   40700   -114.49804   -117.59044    16.208753   -133.79919            0    3.2336624 7.034428e-05         4.01         4.01    1.8952895 2.5379251e-09   -111632.32   -166789.86   -166743.54   -1363.5598 
   40750   -114.49804   -117.59044    16.208754    -133.7992            0     3.233664 0.00011474342         4.01         4.01    1.8952895 8.3572297e-08    -111632.5   -166789.05   -166744.48   -1363.9565 
   40800   -114.49804   -117.59044    16.208755    -133.7992            0    3.2336647 7.5087659e-05         4.01         4.01    1.8952895 1.9243484e-08   -111632.55   -166790.51   -166743.03   -1364.1129 
   40850   -114.49804   -117.59044    16.208756    -133.7992            0    3.2336654 6.4868142e-05         4.01         4.01    1.8952895 1.7904241e-08   -111632.64   -166790.54   -166743.08   -1364.3193 
   40900   -114.49804   -117.59044    16.208757    -133.7992            0    3.2336663 4.4163619e-05         4.01         4.01    1.8952895 1.1707215e-08   -111632.74   -166790.41   -166743.28   -1364.5424 
   40950   -114.49804   -117.59045    16.208758    -133.7992            0    3.2336673 3.599721e-05         4.01         4.01    1.8952895 1.4758833e-08   -111632.83   -166790.32   -166743.39   -1364.7767 
   41000   -114.49804   -117.59045    16.208759    -133.7992            0    3.2336679 3.2160188e-05         4.01         4.01    1.8952895 1.332135e-08   -111632.89   -166790.42   -166743.34   -1364.9282 
   41050   -114.49804   -117.59045    16.208759   -133.79921            0    3.2336684 3.0496679e-05         4.01         4.01    1.8952895 5.6404892e-09   -111632.94    -166790.5   -166743.29   -1365.0405 
   41100   -114.49804   -117.59045     16.20876   -133.79921            0     3.233669 3.0802654e-05         4.01         4.01    1.8952895 6.7016796e-09      -111633    -166790.9   -166742.89   -1365.1922 
   41150   -114.49804   -117.59045    16.208761   -133.79921            0    3.2336698 2.1724125e-05         4.01         4.01    1.8952895 1.4693467e-10   -111633.05   -166790.78   -166743.04    -1365.339 
   41200   -114.49804   -117.59045    16.208761   -133.79921            0    3.2336701 1.8547433e-05         4.01         4.01    1.8952895 5.5559032e-09   -111633.09   -166790.97   -166742.87   -1365.4311 
   41250   -114.49804   -117.59045    16.208762   -133.79921            0    3.2336706 1.6120678e-05         4.01         4.01    1.8952895 2.9908177e-09   -111633.13   -166791.07   -166742.79    -1365.534 
   41300   -114.49804   -117.59045    16.208762   -133.79921            0     3.233671 1.4823795e-05         4.01         4.01    1.8952895 2.8421522e-09   -111633.16   -166791.08   -166742.79   -1365.6225 
   41350   -114.49804   -117.59045    16.208763   -133.79921            0    3.2336712 1.7663489e-05         4.01         4.01    1.8952895 3.5434117e-09   -111633.19   -166791.33   -166742.54   -1365.6894 
   41400   -114.49804   -117.59045    16.208763   -133.79921            0    3.2336714 1.429773e-05         4.01         4.01    1.8952895 1.113094e-09   -111633.21   -166791.38   -166742.51   -1365.7327 
   41450   -114.49804   -117.59045    16.208763   -133.79921            0    3.2336716 9.7106229e-06         4.01         4.01    1.8952895 9.2512516e-10   -111633.23   -166791.37   -166742.53   -1365.7819 
   41500   -114.49804   -117.59045    16.208764   -133.79921            0    3.2336718 1.098081e-05         4.01         4.01    1.8952895 3.386403e-11   -111633.24   -166791.51   -166742.39    -1365.827 
   41550   -114.49804   -117.59045    16.208764   -133.79921            0    3.2336719 1.1139403e-05         4.01         4.01    1.8952895 1.2411384e-12   -111633.25   -166791.58   -166742.33   -1365.8564 
   41600   -114.49804   -117.59045    16.208764   -133.79921            0     3.233672 2.0642929e-05         4.01         4.01    1.8952895 4.6685204e-11   -111633.27   -166791.74   -166742.17   -1365.8833 
   41650   -114.49804   -117.59045    16.208764   -133.79921            0    3.2336722 6.4129846e-06         4.01         4.01    1.8952895 1.9543999e-09   -111633.28   -166791.65   -166742.27   -1365.9244 
   41700   -114.49804   -117.59045    16.208764   -133.79921            0    3.2336724 7.6015625e-06         4.01         4.01    1.8952895 5.0265157e-10   -111633.29   -166791.75   -166742.17   -1365.9524 
   41750   -114.49804   -117.59045    16.208764   -133.79921            0    3.2336724 6.0207098e-06         4.01         4.01    1.8952895 1.1687296e-10    -111633.3   -166791.78   -166742.15   -1365.9727 
   41800   -114.49804   -117.59045    16.208764   -133.79921            0    3.2336725 4.8446481e-06         4.01         4.01    1.8952895 4.2269899e-11   -111633.31   -166791.82   -166742.11   -1365.9953 
   41850   -114.49804   -117.59045    16.208764   -133.79921            0    3.2336726 4.5453383e-06         4.01         4.01    1.8952895 9.910698e-11   -111633.32   -166791.85   -166742.09   -1366.0111 
   41900   -114.49804   -117.59045    16.208764   -133.79921            0    3.2336727 4.7657248e-06         4.01         4.01    1.8952895 1.3901984e-10   -111633.32   -166791.95   -166741.99   -1366.0253 
   41950   -114.49804   -117.59045    16.208765   -133.79921            0    3.2336728 1.5132037e-05         4.01         4.01    1.8952895 5.2374524e-11   -111633.34   -166791.88   -166742.07   -1366.0646 
   42000   -114.49804   -117.59045    16.208765   -133.79921            0    3.2336728 5.1702988e-06         4.01         4.01    1.8952895 2.3404286e-10   -111633.33   -166792.11   -166741.83   -1366.0601 
   42050   -114.49804   -117.59045    16.208765   -133.79921            0    3.2336729 3.3625828e-06         4.01         4.01    1.8952895 2.0391638e-12   -111633.34   -166792.11   -166741.83   -1366.0748 
   42100   -114.49804   -117.59045    16.208765   -133.79921            0    3.2336729 3.8259688e-06         4.01         4.01    1.8952895 6.3474723e-12   -111633.34   -166792.21   -166741.74   -1366.0797 
   42150   -114.49804   -117.59045    16.208765   -133.79921            0     3.233673 2.4787867e-06         4.01         4.01    1.8952895 1.1417388e-11   -111633.34   -166792.24   -166741.71   -1366.0893 
   42200   -114.49804   -117.59045    16.208765   -133.79921            0     3.233673 2.4186309e-06         4.01         4.01    1.8952895 9.1842977e-12   -111633.35   -166792.29   -166741.66    -1366.095 
   42250   -114.49804   -117.59045    16.208765   -133.79921            0     3.233673 2.8520324e-06         4.01         4.01    1.8952895 4.7223685e-12   -111633.35   -166792.31   -166741.63   -1366.1021 
   42300   -114.49804   -117.59045    16.208765   -133.79921            0     3.233673 5.1212508e-06         4.01         4.01    1.8952895 2.1431002e-12   -111633.35   -166792.41   -166741.53    -1366.102 
   42350   -114.49804   -117.59045    16.208765   -133.79921            0     3.233673 1.9650696e-06         4.01         4.01    1.8952895 1.5789451e-11   -111633.35   -166792.41   -166741.54   -1366.1088 
   42400   -114.49804   -117.59045    16.208765   -133.79921            0    3.2336731 2.155934e-06         4.01         4.01    1.8952895 2.3417927e-11   -111633.35   -166792.47   -166741.48   -1366.1116 
   42450   -114.49804   -117.59045    16.208765   -133.79922            0    3.2336731 1.7017672e-06         4.01         4.01    1.8952895 1.6442267e-11   -111633.35   -166792.49   -166741.46   -1366.1145 
   42500   -114.49804   -117.59045    16.208765   -133.79922            0    3.2336731 1.6527401e-06         4.01         4.01    1.8952895 3.1363412e-12   -111633.36   -166792.54   -166741.41   -1366.1176 
   42550   -114.49804   -117.59045    16.208765   -133.79922            0    3.2336731 2.3434538e-06         4.01         4.01    1.8952895 1.123152e-12   -111633.36    -166792.6   -166741.35   -1366.1188 
   42600   -114.49804   -117.59045    16.208765   -133.79922            0    3.2336731 1.7037886e-06         4.01         4.01    1.8952895 7.4511857e-13   -111633.36   -166792.61   -166741.34    -1366.121 
   42650   -114.49804   -117.59045    16.208765   -133.79922            0    3.2336731 2.6400147e-06         4.01         4.01    1.8952895 1.5934034e-11   -111633.36   -166792.67   -166741.28   -1366.1216 
   42700   -114.49804   -117.59045    16.208765   -133.79922            0    3.2336731 1.3158231e-06         4.01         4.01    1.8952895 1.8632203e-11   -111633.36   -166792.67   -166741.29   -1366.1225 
   42750   -114.49804   -117.59045    16.208765   -133.79922            0    3.2336731 1.6557441e-06         4.01         4.01    1.8952895 2.2186716e-11   -111633.36   -166792.71   -166741.24   -1366.1236 
   42800   -114.49804   -117.59045    16.208765   -133.79922            0    3.2336731 1.7179882e-06         4.01         4.01    1.8952895 2.5397479e-11   -111633.36   -166792.74   -166741.21   -1366.1242 
   42850   -114.49804   -117.59045    16.208765   -133.79922            0    3.2336731 1.2049131e-06         4.01         4.01    1.8952895 1.6267977e-12   -111633.36   -166792.77   -166741.18   -1366.1253 
   42900   -114.49804   -117.59045    16.208765   -133.79922            0    3.2336731 1.1701647e-06         4.01         4.01    1.8952895 1.732037e-14   -111633.36    -166792.8   -166741.16    -1366.126 
   42950   -114.49804   -117.59045    16.208765   -133.79922            0    3.2336731 1.8575647e-06         4.01         4.01    1.8952895 3.6503796e-12   -111633.36   -166792.81   -166741.14   -1366.1265 
   42966   -114.49804   -117.59045    16.208765   -133.79922            0    3.2336731 9.972719e-07         4.01         4.01    1.8952895 1.0967107e-11   -111633.36   -166792.83   -166741.12   -1366.1264 
Loop time of 13.5899 on 8 procs for 4076 steps with 10 atoms

24.2% CPU use with 8 MPI tasks x no OpenMP threads

Minimization stats:
  Stopping criterion = force tolerance
  Energy initial, next-to-last, final = 
        -114.498010928     -114.498040962     -114.498040962
  Force two-norm initial, final = 0.0453694 9.97272e-07
  Force max component initial, final = 0.0145554 3.84767e-07
  Final line search alpha, max atom move = 0 0
  Iterations, force evaluations = 4076 4076

MPI task timing breakdown:
Section |  min time  |  avg time  |  max time  |%varavg| %total
---------------------------------------------------------------
Pair    | 0.008332   | 0.67903    | 3.3904     | 131.6 |  5.00
Bond    | 0.002758   | 0.0037119  | 0.0048546  |   1.5 |  0.03
Neigh   | 0          | 0          | 0          |   0.0 |  0.00
Comm    | 6.4072     | 9.9324     | 11.281     |  53.1 | 73.09
Output  | 0.09034    | 0.092585   | 0.099601   |   0.9 |  0.68
Modify  | 0.0032989  | 0.0069112  | 0.022731   |   7.3 |  0.05
Other   |            | 2.875      |            |       | 21.16

Nlocal:    1.25 ave 4 max 0 min
Histogram: 4 0 0 0 0 3 0 0 0 1
Nghost:    808.75 ave 810 max 806 min
Histogram: 1 0 0 0 0 3 0 0 0 4
Neighs:    331.625 ave 1698 max 0 min
Histogram: 5 1 0 1 0 0 0 0 0 1

Total # of neighbors = 2653
Ave neighs/atom = 265.3
Ave special neighs/atom = 1
Neighbor list builds = 0
Dangerous builds = 0
min_style quickmin
minimize 0.0 1e-06 20000 100000
WARNING: Resetting reneighboring criteria during minimization (/tmp/dan/spack-stage/spack-stage-5I_aA6/lammps-feature-CORESHELL-pol/src/min.cpp:168)
Memory usage per processor = 9.02352 Mbytes
Step TotEng E_pair E_vdwl E_coul E_long E_bond Fnorm Lx Ly Lz Temp Press Pxx Pyy Pzz 
   42966   -114.49804   -117.59045    16.208765   -133.79922            0    3.2336731 9.9727193e-07         4.01         4.01    1.8959186            0   -111596.32   -166737.49    -166685.8   -1365.6731 
   42967   -114.49804   -117.59045    16.208765   -133.79922            0    3.2336731 9.9727193e-07         4.01         4.01    1.8959186 3.9398319e-13   -111596.32   -166737.49    -166685.8   -1365.6731 
Loop time of 0.00476105 on 8 procs for 1 steps with 10 atoms

21.0% CPU use with 8 MPI tasks x no OpenMP threads

Minimization stats:
  Stopping criterion = force tolerance
  Energy initial, next-to-last, final = 
        -114.498040962     -114.498040962     -114.498040962
  Force two-norm initial, final = 9.97272e-07 9.97272e-07
  Force max component initial, final = 3.84767e-07 3.84767e-07
  Final line search alpha, max atom move = 0 0
  Iterations, force evaluations = 1 1

MPI task timing breakdown:
Section |  min time  |  avg time  |  max time  |%varavg| %total
---------------------------------------------------------------
Pair    | 8.562e-06  | 0.00030326 | 0.0014904  |   2.7 |  6.37
Bond    | 6.8e-07    | 1.4824e-06 | 2.704e-06  |   0.1 |  0.03
Neigh   | 0          | 0          | 0          |   0.0 |  0.00
Comm    | 0.002338   | 0.003344   | 0.0038618  |   1.0 | 70.24
Output  | 0          | 0          | 0          |   0.0 |  0.00
Modify  | 1.259e-06  | 1.768e-06  | 2.589e-06  |   0.0 |  0.04
Other   |            | 0.001111   |            |       | 23.33

Nlocal:    1.25 ave 4 max 0 min
Histogram: 4 0 0 0 0 3 0 0 0 1
Nghost:    808.75 ave 810 max 806 min
Histogram: 1 0 0 0 0 3 0 0 0 4
Neighs:    331.625 ave 1698 max 0 min
Histogram: 5 1 0 1 0 0 0 0 0 1

Total # of neighbors = 2653
Ave neighs/atom = 265.3
Ave special neighs/atom = 1
Neighbor list builds = 0
Dangerous builds = 0
unfix ef
fix ef all efield -0.0317542648054 -0.0317542648054 -0.0317542648054
fix_modify ef energy yes
min_style fire
minimize 0.0 1e-06 20000 100000
WARNING: Resetting reneighboring criteria during minimization (/tmp/dan/spack-stage/spack-stage-5I_aA6/lammps-feature-CORESHELL-pol/src/min.cpp:168)
Memory usage per processor = 9.02352 Mbytes
Step TotEng E_pair E_vdwl E_coul E_long E_bond Fnorm Lx Ly Lz Temp Press Pxx Pyy Pzz 
   42967   -114.51217   -117.59045    16.208765   -133.79922            0    3.2336731  0.045369424         4.01         4.01    1.8959186            0   -111596.32   -166737.49    -166685.8   -1365.6731 
   43000   -114.51218   -117.59719    16.220806     -133.818            0    3.2406486  0.022768601         4.01         4.01    1.8959186 0.0018399139   -111072.46   -166057.71    -166008.6   -1151.0683 
   43050   -114.51218   -117.59694    16.221573   -133.81852            0    3.2404369  0.013708015         4.01         4.01    1.8959186 0.0056636972   -111050.42   -166063.05   -166014.33   -1073.8695 
   43100   -114.51218   -117.59667    16.222625    -133.8193            0    3.2402012 0.0095538076         4.01         4.01    1.8959186  0.002460402   -110987.13   -165983.23   -165931.28   -1046.8819 
   43150   -114.51219   -117.59792     16.22256   -133.82048            0    3.2415147  0.020604507         4.01         4.01    1.8959186 0.0027338974   -111110.28   -166131.08   -166109.12   -1090.6456 
   43200   -114.51219   -117.59784    16.222912   -133.82075            0    3.2414665  0.015757356         4.01         4.01    1.8959186 0.0018224313   -111106.59   -166105.83   -166083.35    -1130.601 
   43250   -114.51219   -117.59753    16.223367    -133.8209            0    3.2411801 0.0060634263         4.01         4.01    1.8959186 0.00011458943   -111076.56   -166026.73   -165979.27   -1223.6744 
   43300   -114.51219   -117.59771     16.22357   -133.82128            0    3.2413942 0.0055651564         4.01         4.01    1.8959186 0.00014002809   -111097.44   -166033.43   -166000.77   -1258.1375 
   43350    -114.5122   -117.59751     16.22391   -133.82143            0    3.2412215  0.014385332         4.01         4.01    1.8959186 4.4941245e-05    -111082.5   -166035.17   -165825.93    -1386.413 
   43400    -114.5122   -117.59783    16.223663    -133.8215            0    3.2415576 0.0050373764         4.01         4.01    1.8959186 7.8986887e-05    -111128.6   -166031.13   -166031.44   -1323.2397 
   43450    -114.5122   -117.59783    16.223741   -133.82157            0    3.2415679 0.0041892583         4.01         4.01    1.8959186 6.3841188e-05   -111134.79   -166070.35   -165966.83   -1367.1753 
   43500    -114.5122   -117.59792     16.22378    -133.8217            0    3.2416705   0.00287417         4.01         4.01    1.8959186 0.00045211513   -111146.61   -166060.95   -166000.75   -1378.1253 
   43550    -114.5122   -117.59795    16.223818   -133.82177            0     3.241717 0.0027064204         4.01         4.01    1.8959186 6.3999453e-05   -111154.87    -166053.2   -166015.71   -1395.7139 
   43600    -114.5122   -117.59799    16.223865   -133.82185            0    3.2417617 0.0029275303         4.01         4.01    1.8959186 4.5040791e-05   -111160.89   -166047.71   -166026.76   -1408.2022 
   43650    -114.5122   -117.59803    16.223902   -133.82193            0    3.2418119 0.0021085944         4.01         4.01    1.8959186 4.3496839e-06      -111167   -166074.25   -166003.43   -1423.3247 
   43700    -114.5122   -117.59806    16.223934   -133.82199            0    3.2418502 0.0018309888         4.01         4.01    1.8959186 1.7133705e-05   -111172.36   -166064.46   -166019.39   -1433.2329 
   43750    -114.5122   -117.59808    16.223953   -133.82203            0    3.2418775 0.0015780579         4.01         4.01    1.8959186 1.1350516e-05   -111176.91   -166068.07   -166020.07    -1442.583 
   43800    -114.5122   -117.59811    16.223992    -133.8221            0    3.2419198 0.0012920528         4.01         4.01    1.8959186 1.8261731e-06    -111181.4   -166075.59    -166015.6   -1453.0065 
   43850    -114.5122   -117.59813    16.224014   -133.82214            0    3.2419401 0.0011446683         4.01         4.01    1.8959186 4.996225e-06   -111183.93   -166074.26   -166018.86   -1458.6527 
   43900    -114.5122   -117.59815    16.224056   -133.82221            0    3.2419726 0.0010076897         4.01         4.01    1.8959186 8.4916312e-06   -111186.69   -166073.46   -166020.69   -1465.9243 
   43950    -114.5122   -117.59817    16.224073   -133.82225            0    3.2419951 0.00096738142         4.01         4.01    1.8959186 1.1090581e-05   -111189.51   -166074.23    -166022.1   -1472.1812 
   44000    -114.5122   -117.59818    16.224079   -133.82226            0    3.2420056 0.0007894976         4.01         4.01    1.8959186 9.8190911e-06   -111191.47   -166077.11   -166021.38   -1475.9267 
   44050    -114.5122   -117.59819    16.224098   -133.82229            0    3.2420231  0.001053583         4.01         4.01    1.8959186 7.9072402e-06   -111193.29   -166088.92   -166010.67   -1480.2839 
   44100    -114.5122    -117.5982     16.22411   -133.82231            0    3.2420367 0.00065302862         4.01         4.01    1.8959186 6.3377603e-08   -111194.93   -166078.64   -166022.37   -1483.7783 
   44150    -114.5122   -117.59821    16.224119   -133.82233            0    3.2420463 0.00045749104         4.01         4.01    1.8959186 2.2557718e-07   -111196.06   -166082.36   -166019.65   -1486.1565 
   44200    -114.5122   -117.59822    16.224133   -133.82235            0    3.2420571 0.00037951775         4.01         4.01    1.8959186 4.7333358e-07   -111197.06   -166083.76   -166018.75   -1488.6769 
   44250    -114.5122   -117.59822    16.224138   -133.82236            0    3.2420625 0.00035823021         4.01         4.01    1.8959186 1.8561236e-07   -111197.73   -166085.03   -166018.01   -1490.1651 
   44300    -114.5122   -117.59823    16.224149   -133.82238            0     3.242072 0.00035134454         4.01         4.01    1.8959186 8.5148073e-09   -111198.53   -166086.01   -166017.38    -1492.196 
   44350    -114.5122   -117.59824    16.224158    -133.8224            0    3.2420801 0.00039060973         4.01         4.01    1.8959186 5.9849311e-09   -111199.22   -166082.06   -166021.69   -1493.9092 
   44400    -114.5122   -117.59824     16.22416    -133.8224            0    3.2420829 0.00025771215         4.01         4.01    1.8959186 9.2211934e-07   -111199.73   -166084.02   -166020.17   -1494.9978 
   44450    -114.5122   -117.59825    16.224167   -133.82241            0     3.242089 0.00027844863         4.01         4.01    1.8959186 3.4779465e-07   -111200.21   -166087.12   -166017.22   -1496.2885 
   44500    -114.5122   -117.59825    16.224171   -133.82242            0    3.2420924 0.00018040297         4.01         4.01    1.8959186 5.8628054e-09    -111200.6   -166086.06   -166018.62   -1497.1175 
   44550    -114.5122   -117.59825    16.224174   -133.82242            0    3.2420951 0.00016545002         4.01         4.01    1.8959186 2.6531145e-07   -111200.89   -166085.23   -166019.57   -1497.8632 
   44600    -114.5122   -117.59825    16.224179   -133.82243            0    3.2420991 0.00013482857         4.01         4.01    1.8959186 1.6937626e-07   -111201.27   -166086.23   -166018.79   -1498.7884 
   44650    -114.5122   -117.59826    16.224181   -133.82244            0    3.2421015 0.00012037291         4.01         4.01    1.8959186 1.3953055e-07   -111201.52   -166086.44   -166018.72   -1499.4126 
   44700    -114.5122   -117.59826    16.224187   -133.82244            0    3.2421051  0.000106922         4.01         4.01    1.8959186 8.0956862e-09   -111201.75   -166086.78   -166018.36   -1500.1129 
   44750    -114.5122   -117.59826    16.224188   -133.82245            0    3.2421071 0.00010159431         4.01         4.01    1.8959186 2.0885919e-09   -111202.03    -166086.2   -166019.19   -1500.7038 
   44800    -114.5122   -117.59826    16.224189   -133.82245            0    3.2421087 0.00010278072         4.01         4.01    1.8959186 1.4337903e-07   -111202.26   -166086.31   -166019.26   -1501.2044 
   44850    -114.5122   -117.59826    16.224192   -133.82245            0    3.2421105 7.3156531e-05         4.01         4.01    1.8959186 2.3204747e-10   -111202.39   -166087.33   -166018.32   -1501.5217 
   44900    -114.5122   -117.59826    16.224194   -133.82246            0    3.2421125 6.3886157e-05         4.01         4.01    1.8959186 3.4525766e-10   -111202.52   -166087.45   -166018.17   -1501.9277 
   44950    -114.5122   -117.59826    16.224195   -133.82246            0    3.2421132 5.231893e-05         4.01         4.01    1.8959186 4.4826225e-09   -111202.63    -166087.5   -166018.23   -1502.1724 
   45000    -114.5122   -117.59827    16.224196   -133.82246            0    3.2421145 4.5936472e-05         4.01         4.01    1.8959186 2.2309419e-09   -111202.74   -166087.39    -166018.4    -1502.442 
   45050    -114.5122   -117.59827    16.224197   -133.82246            0     3.242115 5.5008721e-05         4.01         4.01    1.8959186 4.2431365e-08   -111202.83   -166087.29   -166018.56   -1502.6405 
   45100    -114.5122   -117.59827    16.224198   -133.82246            0    3.2421161 3.6837265e-05         4.01         4.01    1.8959186 4.5890698e-08   -111202.94   -166087.71   -166018.23   -1502.8982 
   45150    -114.5122   -117.59827    16.224199   -133.82247            0    3.2421168 2.8811108e-05         4.01         4.01    1.8959186 2.6622117e-09   -111202.99   -166087.85   -166018.09   -1503.0171 
   45200    -114.5122   -117.59827    16.224199   -133.82247            0    3.2421172 2.4733816e-05         4.01         4.01    1.8959186 3.1478763e-09   -111203.04   -166087.96      -166018   -1503.1452 
   45250    -114.5122   -117.59827      16.2242   -133.82247            0    3.2421177 2.273507e-05         4.01         4.01    1.8959186 9.5672798e-10   -111203.09   -166088.11    -166017.9   -1503.2589 
   45300    -114.5122   -117.59827    16.224201   -133.82247            0    3.2421184 2.6099329e-05         4.01         4.01    1.8959186 1.5824238e-08   -111203.14   -166088.34   -166017.68   -1503.3971 
   45350    -114.5122   -117.59827    16.224201   -133.82247            0    3.2421186 2.4763978e-05         4.01         4.01    1.8959186 8.6145579e-09   -111203.17   -166088.12   -166017.92   -1503.4587 
   45400    -114.5122   -117.59827    16.224201   -133.82247            0    3.2421189 1.7477583e-05         4.01         4.01    1.8959186 4.3921921e-11   -111203.19   -166088.42   -166017.62   -1503.5262 
   45450    -114.5122   -117.59827    16.224202   -133.82247            0    3.2421194 1.6547876e-05         4.01         4.01    1.8959186 1.2513512e-10   -111203.22   -166088.54   -166017.49   -1503.6218 
   45500    -114.5122   -117.59827    16.224202   -133.82247            0    3.2421197 1.154464e-05         4.01         4.01    1.8959186 2.622384e-10   -111203.25   -166088.55    -166017.5   -1503.6932 
   45550    -114.5122   -117.59827    16.224203   -133.82247            0      3.24212 1.032093e-05         4.01         4.01    1.8959186 8.6381303e-10   -111203.28   -166088.61   -166017.46    -1503.755 
   45600    -114.5122   -117.59827    16.224203   -133.82247            0    3.2421201 9.4946599e-06         4.01         4.01    1.8959186 5.1422317e-10   -111203.29   -166088.74   -166017.34   -1503.7875 
   45650    -114.5122   -117.59827    16.224203   -133.82247            0    3.2421203 9.5898513e-06         4.01         4.01    1.8959186 4.8841448e-10   -111203.31   -166088.86   -166017.22   -1503.8373 
   45700    -114.5122   -117.59827    16.224203   -133.82247            0    3.2421205 7.7579059e-06         4.01         4.01    1.8959186 2.6716229e-10   -111203.33   -166088.85   -166017.25   -1503.8867 
   45750    -114.5122   -117.59827    16.224203   -133.82247            0    3.2421206 1.0370053e-05         4.01         4.01    1.8959186 5.7388479e-11   -111203.34   -166089.03   -166017.07   -1503.9163 
   45800    -114.5122   -117.59827    16.224204   -133.82247            0    3.2421207 8.6215853e-06         4.01         4.01    1.8959186 5.3547441e-10   -111203.35    -166089.1      -166017   -1503.9435 
   45850    -114.5122   -117.59827    16.224204   -133.82247            0    3.2421208 6.1428222e-06         4.01         4.01    1.8959186 2.5096089e-10   -111203.36   -166089.13   -166016.98   -1503.9616 
   45900    -114.5122   -117.59827    16.224204   -133.82247            0    3.2421209 4.3967229e-06         4.01         4.01    1.8959186 7.9038342e-11   -111203.37   -166089.15   -166016.96   -1503.9845 
   45950    -114.5122   -117.59827    16.224204   -133.82247            0     3.242121 4.106884e-06         4.01         4.01    1.8959186 1.5982408e-10   -111203.37   -166089.23   -166016.89   -1503.9993 
   46000    -114.5122   -117.59827    16.224204   -133.82247            0    3.2421211 4.7603241e-06         4.01         4.01    1.8959186 2.5633887e-10   -111203.38   -166089.31   -166016.81   -1504.0168 
   46050    -114.5122   -117.59827    16.224204   -133.82247            0    3.2421211 3.9215755e-06         4.01         4.01    1.8959186 1.7916688e-10   -111203.38   -166089.35   -166016.77   -1504.0272 
   46100    -114.5122   -117.59827    16.224204   -133.82247            0    3.2421212 7.2544775e-06         4.01         4.01    1.8959186 2.0457204e-10   -111203.39   -166089.46   -166016.66    -1504.042 
   46150    -114.5122   -117.59827    16.224204   -133.82247            0    3.2421212 4.5178477e-06         4.01         4.01    1.8959186 1.699642e-10   -111203.39   -166089.47   -166016.65   -1504.0485 
   46200    -114.5122   -117.59827    16.224204   -133.82248            0    3.2421213 2.6050902e-06         4.01         4.01    1.8959186 1.6270831e-10    -111203.4   -166089.51   -166016.61   -1504.0615 
   46250    -114.5122   -117.59827    16.224204   -133.82248            0    3.2421213 3.7100487e-06         4.01         4.01    1.8959186 2.7257595e-10    -111203.4    -166089.6   -166016.53   -1504.0663 
   46300    -114.5122   -117.59827    16.224204   -133.82248            0    3.2421213 3.7936887e-06         4.01         4.01    1.8959186 3.0357848e-10    -111203.4   -166089.65   -166016.48   -1504.0724 
   46350    -114.5122   -117.59827    16.224204   -133.82248            0    3.2421214 5.9187786e-06         4.01         4.01    1.8959186 2.8119286e-10    -111203.4   -166089.62   -166016.51   -1504.0833 
   46400    -114.5122   -117.59827    16.224204   -133.82248            0    3.2421214 1.9305313e-06         4.01         4.01    1.8959186 2.7161215e-11    -111203.4    -166089.7   -166016.43   -1504.0822 
   46450    -114.5122   -117.59827    16.224204   -133.82248            0    3.2421214 2.3995404e-06         4.01         4.01    1.8959186 4.6998869e-11   -111203.41   -166089.77   -166016.36   -1504.0861 
   46500    -114.5122   -117.59827    16.224204   -133.82248            0    3.2421214 1.8573356e-06         4.01         4.01    1.8959186 1.3546836e-13   -111203.41   -166089.79   -166016.34   -1504.0896 
   46550    -114.5122   -117.59827    16.224204   -133.82248            0    3.2421214 1.7025859e-06         4.01         4.01    1.8959186 6.4299848e-11   -111203.41   -166089.83    -166016.3   -1504.0918 
   46600    -114.5122   -117.59827    16.224204   -133.82248            0    3.2421214 1.8713798e-06         4.01         4.01    1.8959186 6.3703342e-11   -111203.41   -166089.89   -166016.24   -1504.0937 
   46650    -114.5122   -117.59827    16.224204   -133.82248            0    3.2421214 3.3649773e-06         4.01         4.01    1.8959186 9.8952298e-11   -111203.41   -166089.94   -166016.19   -1504.0945 
   46700    -114.5122   -117.59827    16.224204   -133.82248            0    3.2421214 4.9967318e-06         4.01         4.01    1.8959186 2.6860644e-12   -111203.41   -166089.99   -166016.14   -1504.0947 
   46750    -114.5122   -117.59827    16.224204   -133.82248            0    3.2421214 1.8482467e-06         4.01         4.01    1.8959186 1.1033067e-10   -111203.41   -166089.97   -166016.16   -1504.0983 
   46800    -114.5122   -117.59827    16.224204   -133.82248            0    3.2421214 4.5185905e-06         4.01         4.01    1.8959186 1.0410758e-10   -111203.41   -166090.05   -166016.08   -1504.0978 
   46850    -114.5122   -117.59827    16.224204   -133.82248            0    3.2421214 1.2035582e-06         4.01         4.01    1.8959186 2.237214e-11   -111203.41   -166090.04   -166016.09   -1504.0994 
   46900    -114.5122   -117.59827    16.224204   -133.82248            0    3.2421215 2.1877427e-06         4.01         4.01    1.8959186 3.8187432e-11   -111203.41   -166090.05   -166016.08   -1504.1004 
   46950    -114.5122   -117.59827    16.224204   -133.82248            0    3.2421215 1.3015882e-06         4.01         4.01    1.8959186 2.1854534e-13   -111203.41   -166090.09   -166016.04   -1504.1005 
   47000    -114.5122   -117.59827    16.224204   -133.82248            0    3.2421215 1.1150536e-06         4.01         4.01    1.8959186 2.8282675e-14   -111203.41   -166090.11   -166016.03    -1504.101 
   47050    -114.5122   -117.59827    16.224204   -133.82248            0    3.2421215 1.2460492e-06         4.01         4.01    1.8959186 6.2183431e-14   -111203.41   -166090.14   -166015.99   -1504.1013 
   47058    -114.5122   -117.59827    16.224204   -133.82248            0    3.2421215 9.9617136e-07         4.01         4.01    1.8959186 2.961104e-12   -111203.41   -166090.13      -166016   -1504.1013 
Loop time of 9.53302 on 8 procs for 4091 steps with 10 atoms

30.1% CPU use with 8 MPI tasks x no OpenMP threads

Minimization stats:
  Stopping criterion = force tolerance
  Energy initial, next-to-last, final = 
        -114.512167362     -114.512197266     -114.512197266
  Force two-norm initial, final = 0.0453694 9.96171e-07
  Force max component initial, final = 0.0145554 3.8561e-07
  Final line search alpha, max atom move = 0 0
  Iterations, force evaluations = 4091 4091

MPI task timing breakdown:
Section |  min time  |  avg time  |  max time  |%varavg| %total
---------------------------------------------------------------
Pair    | 0.0073021  | 0.66932    | 3.3773     | 132.1 |  7.02
Bond    | 0.0022835  | 0.0032191  | 0.0046309  |   1.5 |  0.03
Neigh   | 0          | 0          | 0          |   0.0 |  0.00
Comm    | 3.4978     | 7.3579     | 8.7166     |  66.4 | 77.18
Output  | 0.045117   | 0.047515   | 0.052428   |   1.1 |  0.50
Modify  | 0.0024857  | 0.0038611  | 0.0053694  |   1.8 |  0.04
Other   |            | 1.451      |            |       | 15.22

Nlocal:    1.25 ave 4 max 0 min
Histogram: 4 0 0 0 0 3 0 0 0 1
Nghost:    808.75 ave 810 max 806 min
Histogram: 1 0 0 0 0 3 0 0 0 4
Neighs:    331.625 ave 1698 max 0 min
Histogram: 5 1 0 1 0 0 0 0 0 1

Total # of neighbors = 2653
Ave neighs/atom = 265.3
Ave special neighs/atom = 1
Neighbor list builds = 0
Dangerous builds = 0
min_style quickmin
minimize 0.0 1e-06 20000 100000
WARNING: Resetting reneighboring criteria during minimization (/tmp/dan/spack-stage/spack-stage-5I_aA6/lammps-feature-CORESHELL-pol/src/min.cpp:168)
Memory usage per processor = 9.02352 Mbytes
Step TotEng E_pair E_vdwl E_coul E_long E_bond Fnorm Lx Ly Lz Temp Press Pxx Pyy Pzz 
   47058    -114.5122   -117.59827    16.224204   -133.82248            0    3.2421215 9.9617143e-07         4.01         4.01    1.8965452            0   -111166.67   -166035.26   -165961.15   -1503.6044 
   47059    -114.5122   -117.59827    16.224204   -133.82248            0    3.2421215 9.9617141e-07         4.01         4.01    1.8965452 5.0326101e-13   -111166.67   -166035.26   -165961.15   -1503.6044 
Loop time of 0.00543017 on 8 procs for 1 steps with 10 atoms

27.6% CPU use with 8 MPI tasks x no OpenMP threads

Minimization stats:
  Stopping criterion = force tolerance
  Energy initial, next-to-last, final = 
        -114.512197266     -114.512197266     -114.512197266
  Force two-norm initial, final = 9.96171e-07 9.96171e-07
  Force max component initial, final = 3.8561e-07 3.8561e-07
  Final line search alpha, max atom move = 0 0
  Iterations, force evaluations = 1 1

MPI task timing breakdown:
Section |  min time  |  avg time  |  max time  |%varavg| %total
---------------------------------------------------------------
Pair    | 9.454e-06  | 0.00032755 | 0.0015989  |   2.8 |  6.03
Bond    | 1.066e-06  | 1.8013e-06 | 2.434e-06  |   0.0 |  0.03
Neigh   | 0          | 0          | 0          |   0.0 |  0.00
Comm    | 0.0024116  | 0.0037222  | 0.0043495  |   1.2 | 68.55
Output  | 0          | 0          | 0          |   0.0 |  0.00
Modify  | 1.194e-06  | 1.8991e-06 | 2.768e-06  |   0.0 |  0.03
Other   |            | 0.001377   |            |       | 25.35

Nlocal:    1.25 ave 4 max 0 min
Histogram: 4 0 0 0 0 3 0 0 0 1
Nghost:    808.75 ave 810 max 806 min
Histogram: 1 0 0 0 0 3 0 0 0 4
Neighs:    331.375 ave 1696 max 0 min
Histogram: 5 1 0 1 0 0 0 0 0 1

Total # of neighbors = 2651
Ave neighs/atom = 265.1
Ave special neighs/atom = 1
Neighbor list builds = 0
Dangerous builds = 0
unfix ef
fix ef all efield -0.0346410161514 -0.0346410161514 -0.0346410161514
fix_modify ef energy yes
min_style fire
minimize 0.0 1e-06 20000 100000
WARNING: Resetting reneighboring criteria during minimization (/tmp/dan/spack-stage/spack-stage-5I_aA6/lammps-feature-CORESHELL-pol/src/min.cpp:168)
Memory usage per processor = 9.02352 Mbytes
Step TotEng E_pair E_vdwl E_coul E_long E_bond Fnorm Lx Ly Lz Temp Press Pxx Pyy Pzz 
   47059   -114.52638   -117.59827    16.224204   -133.82248            0    3.2421215  0.045369425         4.01         4.01    1.8965452            0   -111166.67   -166035.26   -165961.15   -1503.6044 
   47100    -114.5264    -117.6036    16.237069   -133.84067            0    3.2476996  0.016198688         4.01         4.01    1.8965452 0.00033677531   -110508.88   -165274.23   -165200.87   -1051.5234 
   47150    -114.5264    -117.6039    16.237848   -133.84174            0    3.2480431  0.012677366         4.01         4.01    1.8965452 0.00050798552   -110515.04   -165259.06   -165183.21   -1102.8652 
   47200    -114.5264   -117.60448     16.23836   -133.84284            0    3.2486817  0.010621996         4.01         4.01    1.8965452 1.3749558e-06   -110550.06   -165252.77   -165171.26   -1226.1541 
   47250   -114.52641   -117.60522    16.238305   -133.84352            0    3.2494727 0.0097039113         4.01         4.01    1.8965452 8.9907154e-06   -110631.82   -165345.48    -165286.2   -1263.7932 
   47300   -114.52641   -117.60495    16.239031   -133.84398            0    3.2492427  0.011327119         4.01         4.01    1.8965452 5.6096324e-06   -110597.83   -165258.59   -165149.27   -1385.6347 
   47350   -114.52641   -117.60538    16.238845   -133.84422            0    3.2496988 0.0059290031         4.01         4.01    1.8965452 6.0853767e-05   -110651.41   -165327.95    -165263.9   -1362.3728 
   47400   -114.52641   -117.60541    16.238992    -133.8444            0    3.2497587 0.0049888051         4.01         4.01    1.8965452 1.6292038e-05   -110666.15   -165328.72   -165241.07   -1428.6658 
   47450   -114.52641   -117.60553    16.239019   -133.84455            0    3.2499084 0.0041537413         4.01         4.01    1.8965452 4.2925043e-05   -110688.75   -165339.47   -165274.89   -1451.8939 
   47500   -114.52641   -117.60561    16.239138   -133.84475            0    3.2500115 0.0036905623         4.01         4.01    1.8965452 9.9765369e-06   -110699.44   -165348.67   -165266.66   -1482.9796 
   47550   -114.52641   -117.60566    16.239181   -133.84485            0    3.2500816 0.0031287695         4.01         4.01    1.8965452 2.655455e-05   -110710.85   -165351.01   -165277.59   -1503.9605 
   47600   -114.52641   -117.60569    16.239216   -133.84491            0    3.2501244 0.0027569353         4.01         4.01    1.8965452 5.6126163e-05   -110718.44   -165364.03   -165271.34   -1519.9509 
   47650   -114.52641   -117.60576    16.239271   -133.84503            0    3.2502008 0.0024422067         4.01         4.01    1.8965452  1.83347e-05   -110727.48   -165366.06   -165278.59   -1537.7958 
   47700   -114.52641   -117.60578    16.239281   -133.84506            0    3.2502366 0.0021639605         4.01         4.01    1.8965452 2.0208622e-05   -110735.46   -165362.27   -165292.76   -1551.3467 
   47750   -114.52641   -117.60583    16.239341   -133.84517            0    3.2503005 0.0024873134         4.01         4.01    1.8965452 0.00013264876   -110742.31   -165355.43   -165305.46   -1566.0431 
   47800   -114.52641   -117.60587    16.239382   -133.84525            0    3.2503433 0.0015388753         4.01         4.01    1.8965452 0.00011885924   -110747.41   -165374.89   -165289.62    -1577.716 
   47850   -114.52641   -117.60588    16.239398   -133.84528            0    3.2503681 0.0013613546         4.01         4.01    1.8965452 9.5003296e-06   -110751.36    -165377.3    -165290.9   -1585.8712 
   47900   -114.52641   -117.60591    16.239438   -133.84535            0    3.2504035 0.0025155607         4.01         4.01    1.8965452 4.8591731e-05   -110755.02   -165395.96   -165274.21   -1594.8886 
   47950   -114.52641   -117.60594     16.23947   -133.84541            0    3.2504342 0.0012084056         4.01         4.01    1.8965452 4.865212e-06   -110757.81   -165371.09   -165300.98   -1601.3658 
   48000   -114.52641   -117.60595    16.239475   -133.84542            0    3.2504484  0.001002324         4.01         4.01    1.8965452 9.356589e-06   -110760.55   -165374.77   -165300.43   -1606.4534 
   48050   -114.52641   -117.60596    16.239491   -133.84545            0    3.2504637 0.00078151391         4.01         4.01    1.8965452 6.4155196e-06   -110762.42   -165381.48   -165295.13   -1610.6535 
   48100   -114.52641   -117.60598    16.239519    -133.8455            0    3.2504867 0.00071428536         4.01         4.01    1.8965452 5.5659893e-07   -110764.37   -165383.96   -165293.54   -1615.5937 
   48150   -114.52641   -117.60598    16.239521   -133.84551            0    3.2504973 0.0006150466         4.01         4.01    1.8965452 4.4804591e-08   -110766.39   -165384.44   -165295.45   -1619.2919 
   48200   -114.52641     -117.606    16.239537   -133.84553            0    3.2505114 0.00059711556         4.01         4.01    1.8965452 2.9613563e-07   -110767.77   -165379.98   -165300.73   -1622.5991 
   48250   -114.52641     -117.606    16.239545   -133.84555            0    3.2505204 0.00061187979         4.01         4.01    1.8965452 1.2714483e-07   -110768.96    -165387.6   -165294.13   -1625.1461 
   48300   -114.52641   -117.60601    16.239553   -133.84556            0    3.2505288 0.00042752266         4.01         4.01    1.8965452 2.5538995e-06   -110769.92    -165382.5   -165299.98    -1627.265 
   48350   -114.52641   -117.60601    16.239559   -133.84557            0    3.2505357 0.0004160723         4.01         4.01    1.8965452 2.5010088e-06   -110770.73   -165382.59    -165300.5   -1629.0909 
   48400   -114.52641   -117.60602    16.239565   -133.84558            0    3.2505403 0.00031683949         4.01         4.01    1.8965452 9.7074174e-07   -110771.17   -165385.87    -165297.5   -1630.1349 
   48450   -114.52641   -117.60602    16.239574    -133.8456            0    3.2505486 0.00024870118         4.01         4.01    1.8965452 1.1777584e-06   -110771.98   -165385.29   -165298.54   -1632.1007 
   48500   -114.52641   -117.60603     16.23958   -133.84561            0    3.2505537 0.00022689469         4.01         4.01    1.8965452 5.6225594e-07   -110772.43   -165385.61   -165298.51   -1633.1722 
   48550   -114.52641   -117.60603    16.239591   -133.84562            0    3.2505615 0.00020501606         4.01         4.01    1.8965452 3.2793136e-07   -110772.84   -165386.46   -165297.51   -1634.5461 
   48600   -114.52641   -117.60604    16.239595   -133.84563            0    3.2505662 0.00017539125         4.01         4.01    1.8965452 6.4788663e-07   -110773.38   -165386.03   -165298.26   -1635.8363 
   48650   -114.52641   -117.60604    16.239598   -133.84564            0    3.2505694 0.00015583331         4.01         4.01    1.8965452 7.545167e-07   -110773.81   -165386.88   -165297.75   -1636.8151 
   48700   -114.52641   -117.60604    16.239603   -133.84565            0    3.2505731 0.00015084674         4.01         4.01    1.8965452 3.4012212e-07   -110774.03    -165387.4   -165297.23   -1637.4511 
   48750   -114.52641   -117.60604    16.239607   -133.84565            0    3.2505755 0.00011776785         4.01         4.01    1.8965452 7.7111116e-08   -110774.24    -165386.6   -165298.09   -1638.0213 
   48800   -114.52641   -117.60605    16.239609   -133.84566            0    3.2505786 0.00019779628         4.01         4.01    1.8965452 4.1336187e-08   -110774.62   -165385.89   -165299.16   -1638.8122 
   48850   -114.52641   -117.60605     16.23961   -133.84566            0    3.2505802 8.7524878e-05         4.01         4.01    1.8965452 1.600852e-08   -110774.82   -165387.49   -165297.75   -1639.2306 
   48900   -114.52641   -117.60605    16.239612   -133.84566            0    3.2505814 7.9162549e-05         4.01         4.01    1.8965452 6.7703648e-08   -110774.97   -165387.44   -165297.85   -1639.6127 
   48950   -114.52641   -117.60605    16.239613   -133.84566            0    3.2505825 7.3681497e-05         4.01         4.01    1.8965452 2.8616473e-08    -110775.1   -165388.32   -165297.08   -1639.8938 
   49000   -114.52641   -117.60605    16.239614   -133.84567            0    3.2505835 6.4374986e-05         4.01         4.01    1.8965452 2.3766196e-08   -110775.22   -165388.42   -165297.09   -1640.1623 
   49050   -114.52641   -117.60605    16.239616   -133.84567            0    3.2505852 5.2933834e-05         4.01         4.01    1.8965452 5.7865025e-09   -110775.32   -165388.16   -165297.35    -1640.451 
   49100   -114.52641   -117.60605    16.239617   -133.84567            0    3.2505861 4.5615318e-05         4.01         4.01    1.8965452 2.9970101e-08   -110775.41   -165388.59   -165296.94   -1640.7046 
   49150   -114.52641   -117.60605    16.239619   -133.84567            0    3.2505876 6.9158803e-05         4.01         4.01    1.8965452 8.5171099e-09   -110775.54   -165389.12   -165296.48   -1641.0343 
   49200   -114.52641   -117.60605     16.23962   -133.84567            0    3.2505882 3.3578202e-05         4.01         4.01    1.8965452 8.8908836e-09    -110775.6   -165388.82   -165296.82   -1641.1582 
   49250   -114.52641   -117.60606    16.239621   -133.84568            0    3.2505891 3.259399e-05         4.01         4.01    1.8965452 2.0333058e-08   -110775.69   -165389.03   -165296.65   -1641.3922 
   49300   -114.52641   -117.60606    16.239621   -133.84568            0    3.2505895 4.4369634e-05         4.01         4.01    1.8965452 2.0140117e-08   -110775.73   -165389.34   -165296.36    -1641.492 
   49350   -114.52641   -117.60606    16.239622   -133.84568            0    3.2505899 2.368002e-05         4.01         4.01    1.8965452 3.981766e-09   -110775.78   -165389.23   -165296.51   -1641.5881 
   49400   -114.52641   -117.60606    16.239622   -133.84568            0    3.2505904 1.8551279e-05         4.01         4.01    1.8965452 1.4533031e-09   -110775.84   -165389.19    -165296.6   -1641.7152 
   49450   -114.52641   -117.60606    16.239623   -133.84568            0    3.2505908 1.6871818e-05         4.01         4.01    1.8965452 1.4544175e-09   -110775.86   -165389.41   -165296.39   -1641.7918 
   49500   -114.52641   -117.60606    16.239623   -133.84568            0    3.2505911 1.5971746e-05         4.01         4.01    1.8965452 1.651701e-09   -110775.89   -165389.36   -165296.45   -1641.8653 
   49550   -114.52641   -117.60606    16.239623   -133.84568            0    3.2505913 1.3305321e-05         4.01         4.01    1.8965452 1.0202562e-09   -110775.92   -165389.47   -165296.37   -1641.9232 
   49600   -114.52641   -117.60606    16.239624   -133.84568            0    3.2505917 2.2177907e-05         4.01         4.01    1.8965452 7.3166271e-10   -110775.95   -165389.82   -165296.03   -1641.9938 
   49650   -114.52641   -117.60606    16.239624   -133.84568            0    3.2505918 9.0892946e-06         4.01         4.01    1.8965452 1.2355281e-09   -110775.96   -165389.71   -165296.14   -1642.0397 
   49700   -114.52641   -117.60606    16.239624   -133.84568            0     3.250592 8.0937571e-06         4.01         4.01    1.8965452 8.7992369e-10   -110775.98   -165389.82   -165296.04   -1642.0806 
   49750   -114.52641   -117.60606    16.239624   -133.84568            0    3.2505922 7.304612e-06         4.01         4.01    1.8965452 8.1684469e-10      -110776   -165389.88      -165296   -1642.1247 
   49800   -114.52641   -117.60606    16.239624   -133.84568            0    3.2505923 1.3104751e-05         4.01         4.01    1.8965452 1.0777454e-09   -110776.01   -165390.09   -165295.79   -1642.1592 
   49850   -114.52641   -117.60606    16.239624   -133.84568            0    3.2505924 8.8183989e-06         4.01         4.01    1.8965452 7.4049063e-10   -110776.02   -165390.11   -165295.78   -1642.1799 
   49900   -114.52641   -117.60606    16.239625   -133.84568            0    3.2505926 5.8462686e-06         4.01         4.01    1.8965452 6.8357564e-10   -110776.04   -165390.11   -165295.79   -1642.2135 
   49950   -114.52641   -117.60606    16.239625   -133.84568            0    3.2505926 4.7207755e-06         4.01         4.01    1.8965452 6.5305127e-11   -110776.04    -165390.2    -165295.7   -1642.2258 
   50000   -114.52641   -117.60606    16.239625   -133.84568            0    3.2505927 5.1874541e-06         4.01         4.01    1.8965452 6.8031735e-10   -110776.05   -165390.29   -165295.61   -1642.2426 
   50050   -114.52641   -117.60606    16.239625   -133.84568            0    3.2505928 5.6752635e-06         4.01         4.01    1.8965452 1.385967e-12   -110776.05   -165390.37   -165295.52   -1642.2615 
   50100   -114.52641   -117.60606    16.239625   -133.84568            0    3.2505929 3.7594892e-06         4.01         4.01    1.8965452 8.6709927e-12   -110776.06    -165390.4    -165295.5   -1642.2747 
   50150   -114.52641   -117.60606    16.239625   -133.84568            0    3.2505929 3.3655392e-06         4.01         4.01    1.8965452 4.7096287e-11   -110776.06   -165390.46   -165295.45   -1642.2891 
   50200   -114.52641   -117.60606    16.239625   -133.84568            0     3.250593 3.973205e-06         4.01         4.01    1.8965452 5.6238768e-11   -110776.07   -165390.55   -165295.36   -1642.2944 
   50250   -114.52641   -117.60606    16.239625   -133.84568            0     3.250593 4.7092971e-06         4.01         4.01    1.8965452  3.21964e-12   -110776.07   -165390.63   -165295.28   -1642.3074 
   50300   -114.52641   -117.60606    16.239625   -133.84568            0    3.2505931 2.7412558e-06         4.01         4.01    1.8965452 2.2094984e-10   -110776.07   -165390.64   -165295.26   -1642.3155 
   50350   -114.52641   -117.60606    16.239625   -133.84568            0    3.2505931 2.6210964e-06         4.01         4.01    1.8965452 1.181609e-10   -110776.08   -165390.69   -165295.22    -1642.321 
   50400   -114.52641   -117.60606    16.239625   -133.84568            0    3.2505931 2.1326258e-06         4.01         4.01    1.8965452 9.6452297e-11   -110776.08   -165390.76   -165295.15   -1642.3265 
   50450   -114.52641   -117.60606    16.239625   -133.84568            0    3.2505931 2.1457111e-06         4.01         4.01    1.8965452 9.6397453e-12   -110776.08   -165390.82   -165295.09   -1642.3305 
   50500   -114.52641   -117.60606    16.239625   -133.84568            0    3.2505931 2.1787574e-06         4.01         4.01    1.8965452 8.0695097e-12   -110776.08   -165390.87   -165295.04   -1642.3334 
   50550   -114.52641   -117.60606    16.239625   -133.84568            0    3.2505932 1.9391732e-06         4.01         4.01    1.8965452 5.8017491e-12   -110776.08   -165390.93   -165294.98   -1642.3373 
   50600   -114.52641   -117.60606    16.239625   -133.84568            0    3.2505932 1.7335075e-06         4.01         4.01    1.8965452 3.9664901e-11   -110776.08   -165390.96   -165294.95   -1642.3388 
   50650   -114.52641   -117.60606    16.239625   -133.84568            0    3.2505932 2.4298856e-06         4.01         4.01    1.8965452 1.9792409e-13   -110776.08   -165391.01    -165294.9     -1642.34 
   50700   -114.52641   -117.60606    16.239625   -133.84568            0    3.2505932 2.0644681e-06         4.01         4.01    1.8965452 9.2356558e-12   -110776.08   -165391.03   -165294.88   -1642.3423 
   50750   -114.52641   -117.60606    16.239625   -133.84568            0    3.2505932 1.4766664e-06         4.01         4.01    1.8965452 6.4390002e-13   -110776.09   -165391.08   -165294.84   -1642.3434 
   50800   -114.52641   -117.60606    16.239625   -133.84568            0    3.2505932 2.6054769e-06         4.01         4.01    1.8965452 6.3834874e-11   -110776.09   -165391.14   -165294.77   -1642.3447 
   50850   -114.52641   -117.60606    16.239625   -133.84568            0    3.2505932 1.4856333e-06         4.01         4.01    1.8965452 6.6568214e-13   -110776.09   -165391.15   -165294.76   -1642.3454 
   50900   -114.52641   -117.60606    16.239625   -133.84568            0    3.2505932 1.2849325e-06         4.01         4.01    1.8965452 1.0277116e-11   -110776.09   -165391.18   -165294.73   -1642.3462 
   50950   -114.52641   -117.60606    16.239625   -133.84568            0    3.2505932 1.4593986e-06         4.01         4.01    1.8965452 8.9096591e-12   -110776.09   -165391.23   -165294.69   -1642.3468 
   51000   -114.52641   -117.60606    16.239625   -133.84568            0    3.2505932 1.242202e-06         4.01         4.01    1.8965452 6.3252565e-12   -110776.09   -165391.24   -165294.67   -1642.3471 
   51050   -114.52641   -117.60606    16.239625   -133.84568            0    3.2505932 1.5248767e-06         4.01         4.01    1.8965452 3.6016391e-11   -110776.09   -165391.28   -165294.64   -1642.3476 
   51100   -114.52641   -117.60606    16.239625   -133.84568            0    3.2505932 1.8544862e-06         4.01         4.01    1.8965452 5.0502516e-11   -110776.09   -165391.31   -165294.61   -1642.3478 
   51117   -114.52641   -117.60606    16.239625   -133.84568            0    3.2505932 9.9981124e-07         4.01         4.01    1.8965452 9.4566522e-12   -110776.09    -165391.3   -165294.61   -1642.3479 
Loop time of 9.43853 on 8 procs for 4058 steps with 10 atoms

30.0% CPU use with 8 MPI tasks x no OpenMP threads

Minimization stats:
  Stopping criterion = force tolerance
  Energy initial, next-to-last, final = 
        -114.526383425     -114.526413205     -114.526413205
  Force two-norm initial, final = 0.0453694 9.99811e-07
  Force max component initial, final = 0.0145554 3.92407e-07
  Final line search alpha, max atom move = 0 0
  Iterations, force evaluations = 4058 4058

MPI task timing breakdown:
Section |  min time  |  avg time  |  max time  |%varavg| %total
---------------------------------------------------------------
Pair    | 0.0069504  | 0.65524    | 3.2852     | 129.9 |  6.94
Bond    | 0.0021654  | 0.0031448  | 0.0045775  |   1.5 |  0.03
Neigh   | 0          | 0          | 0          |   0.0 |  0.00
Comm    | 4.2614     | 7.397      | 8.6141     |  57.4 | 78.37
Output  | 0.03354    | 0.035174   | 0.041307   |   1.3 |  0.37
Modify  | 0.0025954  | 0.0040142  | 0.0054146  |   1.8 |  0.04
Other   |            | 1.344      |            |       | 14.24

Nlocal:    1.25 ave 4 max 0 min
Histogram: 4 0 0 0 0 3 0 0 0 1
Nghost:    808.75 ave 810 max 806 min
Histogram: 1 0 0 0 0 3 0 0 0 4
Neighs:    331.375 ave 1696 max 0 min
Histogram: 5 1 0 1 0 0 0 0 0 1

Total # of neighbors = 2651
Ave neighs/atom = 265.1
Ave special neighs/atom = 1
Neighbor list builds = 0
Dangerous builds = 0
min_style quickmin
minimize 0.0 1e-06 20000 100000
WARNING: Resetting reneighboring criteria during minimization (/tmp/dan/spack-stage/spack-stage-5I_aA6/lammps-feature-CORESHELL-pol/src/min.cpp:168)
Memory usage per processor = 9.02352 Mbytes
Step TotEng E_pair E_vdwl E_coul E_long E_bond Fnorm Lx Ly Lz Temp Press Pxx Pyy Pzz 
   51117   -114.52641   -117.60606    16.239625   -133.84568            0    3.2505932 9.998113e-07         4.01         4.01    1.8971696            0   -110739.63   -165336.87   -165240.21   -1641.8074 
   51118   -114.52641   -117.60606    16.239625   -133.84568            0    3.2505932 9.9981129e-07         4.01         4.01    1.8971696 4.0615598e-13   -110739.63   -165336.87   -165240.21   -1641.8074 
Loop time of 0.00490528 on 8 procs for 1 steps with 10 atoms

40.8% CPU use with 8 MPI tasks x no OpenMP threads

Minimization stats:
  Stopping criterion = force tolerance
  Energy initial, next-to-last, final = 
        -114.526413205     -114.526413205     -114.526413205
  Force two-norm initial, final = 9.99811e-07 9.99811e-07
  Force max component initial, final = 3.92407e-07 3.92407e-07
  Final line search alpha, max atom move = 0 0
  Iterations, force evaluations = 1 1

MPI task timing breakdown:
Section |  min time  |  avg time  |  max time  |%varavg| %total
---------------------------------------------------------------
Pair    | 8.323e-06  | 0.00032467 | 0.0015954  |   2.8 |  6.62
Bond    | 8.48e-07   | 1.5117e-06 | 2.709e-06  |   0.1 |  0.03
Neigh   | 0          | 0          | 0          |   0.0 |  0.00
Comm    | 0.0023774  | 0.0035124  | 0.0040347  |   1.1 | 71.60
Output  | 0          | 0          | 0          |   0.0 |  0.00
Modify  | 1.112e-06  | 1.6106e-06 | 2.328e-06  |   0.0 |  0.03
Other   |            | 0.001065   |            |       | 21.71

Nlocal:    1.25 ave 4 max 0 min
Histogram: 4 0 0 0 0 3 0 0 0 1
Nghost:    808.75 ave 810 max 806 min
Histogram: 1 0 0 0 0 3 0 0 0 4
Neighs:    331.125 ave 1694 max 0 min
Histogram: 5 1 0 1 0 0 0 0 0 1

Total # of neighbors = 2649
Ave neighs/atom = 264.9
Ave special neighs/atom = 1
Neighbor list builds = 0
Dangerous builds = 0
unfix ef
fix ef all efield -0.0375277674973 -0.0375277674973 -0.0375277674973
fix_modify ef energy yes
min_style fire
minimize 0.0 1e-06 20000 100000
WARNING: Resetting reneighboring criteria during minimization (/tmp/dan/spack-stage/spack-stage-5I_aA6/lammps-feature-CORESHELL-pol/src/min.cpp:168)
Memory usage per processor = 9.02352 Mbytes
Step TotEng E_pair E_vdwl E_coul E_long E_bond Fnorm Lx Ly Lz Temp Press Pxx Pyy Pzz 
   51118   -114.54066   -117.60606    16.239625   -133.84568            0    3.2505932  0.045369419         4.01         4.01    1.8971696            0   -110739.63   -165336.87   -165240.21   -1641.8074 
   51150   -114.54067   -117.61354    16.251202   -133.86474            0    3.2583569  0.032020017         4.01         4.01    1.8971696 0.00099550981   -110293.33   -164716.37    -164623.8   -1539.8097 
   51200   -114.54067    -117.6113    16.253345   -133.86464            0    3.2561444  0.016996705         4.01         4.01    1.8971696 0.0044848382   -110058.15   -164541.75   -164444.67   -1188.0279 
   51250   -114.54068   -117.61196    16.253799   -133.86576            0    3.2568676  0.013831694         4.01         4.01    1.8971696 0.0017902396   -110100.83   -164526.48   -164419.57   -1356.4315 
   51300   -114.54068   -117.61243    16.253947   -133.86638            0    3.2573806  0.010158272         4.01         4.01    1.8971696 0.0011391304   -110144.13   -164561.83   -164454.61   -1415.9571 
   51350   -114.54068   -117.61296    16.254072   -133.86703            0    3.2579626  0.006925919         4.01         4.01    1.8971696 1.3086592e-05   -110202.05   -164619.82   -164525.84   -1460.4905 
   51400   -114.54068    -117.6128     16.25449   -133.86729            0    3.2578403  0.012114599         4.01         4.01    1.8971696 0.0016925073   -110191.38   -164575.11   -164421.15   -1577.8744 
   51450   -114.54069   -117.61315    16.254338   -133.86749            0    3.2582174 0.0052636488         4.01         4.01    1.8971696 1.8804318e-05   -110236.59   -164632.14      -164529   -1548.6351 
   51500   -114.54069   -117.61323    16.254403   -133.86763            0    3.2583209 0.0045761987         4.01         4.01    1.8971696 0.00066698931   -110253.13   -164636.72   -164542.81   -1579.8537 
   51550   -114.54069   -117.61333    16.254485   -133.86781            0    3.2584472 0.0040553027         4.01         4.01    1.8971696 0.00033054817    -110268.6   -164652.42   -164544.99   -1608.3862 
   51600   -114.54069    -117.6134    16.254595   -133.86799            0    3.2585417 0.0057972601         4.01         4.01    1.8971696 2.1241597e-05   -110281.96   -164691.48   -164510.59   -1643.8019 
   51650   -114.54069   -117.61345    16.254627   -133.86808            0     3.258612 0.0030313094         4.01         4.01    1.8971696 6.1105258e-05   -110291.65   -164669.63   -164549.09   -1656.2138 
   51700   -114.54069    -117.6135      16.2547    -133.8682            0     3.258683 0.0033994095         4.01         4.01    1.8971696 5.8036145e-05   -110301.05   -164686.77    -164541.4   -1674.9884 
   51750   -114.54069   -117.61356    16.254718   -133.86827            0    3.2587491 0.0023981003         4.01         4.01    1.8971696 4.2613191e-05   -110311.24    -164657.9   -164582.48   -1693.3326 
   51800   -114.54069   -117.61358    16.254739   -133.86832            0    3.2587815 0.0018168199         4.01         4.01    1.8971696 4.7869747e-05   -110316.35   -164669.25   -164575.78   -1704.0081 
   51850   -114.54069   -117.61361    16.254787   -133.86839            0    3.2588197 0.0018889407         4.01         4.01    1.8971696 2.5522554e-05    -110320.3    -164685.6   -164562.68   -1712.6236 
   51900   -114.54069   -117.61364    16.254796   -133.86843            0    3.2588541 0.0013716587         4.01         4.01    1.8971696 2.1525064e-05   -110325.69   -164677.99   -164576.29   -1722.8062 
   51950   -114.54069   -117.61366    16.254829   -133.86849            0    3.2588911 0.0016334992         4.01         4.01    1.8971696 8.6888956e-07   -110330.07   -164691.09   -164566.95   -1732.1865 
   52000   -114.54069   -117.61368    16.254844   -133.86852            0    3.2589119 0.0011583453         4.01         4.01    1.8971696 5.2720137e-07   -110333.08    -164687.3   -164573.72   -1738.2017 
   52050   -114.54069    -117.6137    16.254877   -133.86858            0    3.2589403 0.0010305438         4.01         4.01    1.8971696 1.1478257e-07   -110335.33   -164678.73   -164583.31   -1743.9524 
   52100   -114.54069   -117.61371    16.254887    -133.8686            0    3.2589537 0.00081674176         4.01         4.01    1.8971696 6.3592121e-07   -110337.38   -164682.92   -164580.94   -1748.2852 
   52150   -114.54069   -117.61372    16.254902   -133.86862            0    3.2589673 0.00070583005         4.01         4.01    1.8971696 6.0944057e-07   -110339.01   -164684.22   -164580.76   -1752.0644 
   52200   -114.54069   -117.61373    16.254914   -133.86865            0    3.2589818 0.00084319119         4.01         4.01    1.8971696 9.4604012e-06   -110340.74   -164681.34   -164585.07   -1755.8145 
   52250   -114.54069   -117.61375    16.254934   -133.86868            0    3.2589996 0.00060996112         4.01         4.01    1.8971696 4.8776189e-06   -110342.15   -164689.61   -164577.61   -1759.2449 
   52300   -114.54069   -117.61376    16.254951   -133.86871            0     3.259015 0.00046345091         4.01         4.01    1.8971696 1.8913138e-07   -110343.66   -164687.47   -164580.72    -1762.792 
   52350   -114.54069   -117.61376    16.254964   -133.86873            0    3.2590247 0.00042719265         4.01         4.01    1.8971696 1.2216427e-06   -110344.53   -164686.47   -164581.98   -1765.1297 
   52400   -114.54069   -117.61377     16.25497   -133.86874            0    3.2590336 0.00052030007         4.01         4.01    1.8971696 1.6325913e-07   -110345.64    -164685.5   -164583.83   -1767.6015 
   52450   -114.54069   -117.61377    16.254976   -133.86875            0    3.2590379 0.00033982556         4.01         4.01    1.8971696 7.2585916e-10   -110346.25   -164690.94   -164578.82   -1768.9912 
   52500   -114.54069   -117.61378    16.254987   -133.86877            0     3.259048 0.00042748604         4.01         4.01    1.8971696 3.5274042e-06   -110347.06   -164686.86   -164583.42   -1770.8934 
   52550   -114.54069   -117.61379    16.254993   -133.86878            0    3.2590535 0.00029025333         4.01         4.01    1.8971696 1.5337613e-09   -110347.59   -164688.37   -164582.17   -1772.2429 
   52600   -114.54069   -117.61379    16.254997   -133.86879            0    3.2590583 0.00019862924         4.01         4.01    1.8971696 1.352177e-07   -110348.11   -164690.84   -164580.06   -1773.4379 
   52650   -114.54069   -117.61379    16.254999   -133.86879            0    3.2590602 0.0001728645         4.01         4.01    1.8971696 2.9547201e-07   -110348.45   -164690.56   -164580.69   -1774.0962 
   52700   -114.54069   -117.61379    16.255003    -133.8688            0    3.2590641 0.00014910136         4.01         4.01    1.8971696 2.725778e-07   -110348.87   -164690.97   -164580.58   -1775.0577 
   52750   -114.54069    -117.6138    16.255006    -133.8688            0    3.2590675 0.00013728772         4.01         4.01    1.8971696 1.2556137e-10   -110349.22   -164691.92   -164579.85   -1775.8997 
   52800   -114.54069    -117.6138     16.25501   -133.86881            0    3.2590706 0.00013578541         4.01         4.01    1.8971696 1.5242796e-09   -110349.46   -164690.99   -164580.87   -1776.5257 
   52850   -114.54069    -117.6138    16.255013   -133.86881            0    3.2590734 0.00011664413         4.01         4.01    1.8971696 2.0309217e-10   -110349.74   -164692.49   -164579.56   -1777.1527 
   52900   -114.54069    -117.6138    16.255014   -133.86882            0    3.2590745 0.00010885993         4.01         4.01    1.8971696 2.3920693e-09    -110349.9   -164692.77    -164579.4   -1777.5184 
   52950   -114.54069    -117.6138    16.255017   -133.86882            0    3.2590769 0.00013095509         4.01         4.01    1.8971696 7.9281296e-10    -110350.1   -164691.44   -164580.87   -1778.0014 
   53000   -114.54069    -117.6138    16.255018   -133.86882            0    3.2590779 7.1022746e-05         4.01         4.01    1.8971696 7.446703e-09   -110350.21   -164692.77   -164579.59   -1778.2819 
   53050   -114.54069   -117.61381     16.25502   -133.86883            0    3.2590795 5.8714239e-05         4.01         4.01    1.8971696 1.8636985e-09   -110350.38   -164692.64   -164579.82   -1778.6898 
   53100   -114.54069   -117.61381    16.255021   -133.86883            0    3.2590808 5.5406085e-05         4.01         4.01    1.8971696 4.0184956e-09   -110350.47   -164693.11   -164579.37   -1778.9489 
   53150   -114.54069   -117.61381    16.255023   -133.86883            0     3.259082 4.552106e-05         4.01         4.01    1.8971696 4.8918331e-10   -110350.58   -164693.01   -164579.51   -1779.2067 
   53200   -114.54069   -117.61381    16.255024   -133.86883            0    3.2590831 4.6243871e-05         4.01         4.01    1.8971696 1.6370646e-08   -110350.65   -164693.46   -164579.06    -1779.449 
   53250   -114.54069   -117.61381    16.255025   -133.86883            0     3.259084 3.9484833e-05         4.01         4.01    1.8971696 2.9548681e-08   -110350.77   -164693.55   -164579.07   -1779.6886 
   53300   -114.54069   -117.61381    16.255025   -133.86884            0    3.2590846 6.2175952e-05         4.01         4.01    1.8971696 3.0139784e-08   -110350.83   -164693.02   -164579.66   -1779.8222 
   53350   -114.54069   -117.61381    16.255026   -133.86884            0    3.2590852 2.6420256e-05         4.01         4.01    1.8971696 1.182721e-09   -110350.89    -164693.7   -164579.01   -1779.9631 
   53400   -114.54069   -117.61381    16.255027   -133.86884            0    3.2590856 2.7030172e-05         4.01         4.01    1.8971696 4.3064437e-09   -110350.93    -164693.6   -164579.11   -1780.0651 
   53450   -114.54069   -117.61381    16.255027   -133.86884            0     3.259086 2.183214e-05         4.01         4.01    1.8971696 2.8724512e-09   -110350.98   -164693.77   -164578.99   -1780.1669 
   53500   -114.54069   -117.61381    16.255028   -133.86884            0    3.2590864 2.6292411e-05         4.01         4.01    1.8971696 3.3363752e-09   -110351.01   -164694.18   -164578.58   -1780.2633 
   53550   -114.54069   -117.61381    16.255028   -133.86884            0    3.2590871 6.6979945e-05         4.01         4.01    1.8971696 1.0394786e-09   -110351.07   -164693.56   -164579.27    -1780.395 
   53600   -114.54069   -117.61381    16.255028   -133.86884            0    3.2590871 1.5717514e-05         4.01         4.01    1.8971696 7.0498472e-10   -110351.08    -164694.3   -164578.51   -1780.4212 
   53650   -114.54069   -117.61381    16.255029   -133.86884            0    3.2590875 1.0898432e-05         4.01         4.01    1.8971696 1.1597374e-09    -110351.1   -164694.31   -164578.51   -1780.4859 
   53700   -114.54069   -117.61381    16.255029   -133.86884            0    3.2590876 1.2011871e-05         4.01         4.01    1.8971696 1.6412466e-09   -110351.12   -164694.46   -164578.37   -1780.5322 
   53750   -114.54069   -117.61381    16.255029   -133.86884            0    3.2590878 9.2276027e-06         4.01         4.01    1.8971696 9.6024743e-10   -110351.14    -164694.5   -164578.33   -1780.5713 
   53800   -114.54069   -117.61381    16.255029   -133.86884            0    3.2590882 2.5475719e-05         4.01         4.01    1.8971696 1.4192518e-09   -110351.18   -164694.39   -164578.48   -1780.6567 
   53850   -114.54069   -117.61381     16.25503   -133.86884            0    3.2590882 9.1490089e-06         4.01         4.01    1.8971696 2.6109123e-10   -110351.17   -164694.62   -164578.24   -1780.6646 
   53900   -114.54069   -117.61381     16.25503   -133.86884            0    3.2590884 6.298883e-06         4.01         4.01    1.8971696 1.8623937e-10   -110351.18   -164694.74   -164578.13   -1780.6905 
   53950   -114.54069   -117.61381     16.25503   -133.86884            0    3.2590885 7.2354