LAMMPS (7 Sep 2016)
# Input file for lammps simulation using the Isotropic-anharmonic Shell Model
# proposed by Vielma and Schneider based on PBE Generalized Gradient
# Approximation(GGA) to Density Functional Theory(DFT):
# [Vielma Schneider 2013](http://dx.doi.org/10.1063/1.4827475)

# Vishal Boddu, June 2016

# ------------------------ INITIALIZATION ---------------------------------

units 		metal
dimension	3
boundary	p	p	p
atom_style	full

# ----------------------- ATOM DEFINITION ----------------------------

fix csinfo all property/atom i_CSID
read_data atom.data fix csinfo NULL CS-Info
  orthogonal box = (0 0 0) to (40.1 40.1 48.12)
  2 by 2 by 2 MPI processor grid
  reading atoms ...
  12000 atoms
  scanning bonds ...
  1 = max bonds/atom
  reading bonds ...
  6000 bonds
  1 = max # of 1-2 neighbors
  0 = max # of 1-3 neighbors
  0 = max # of 1-4 neighbors
  1 = max # of special neighbors

#change_box all x scale ${a} y scale ${b} z scale ${c} remap
#change_box all triclinic xy delta ${XY} xz delta ${XZ} yz delta ${YZ} remap
#change_box all triclinic xy delta 0.0 xz delta 0.0 yz delta 0.0 remap

group cores type 1 3 5
6000 atoms in group cores
group shells type 2 4 6
6000 atoms in group shells

neighbor 0.5 bin
neigh_modify delay 10 check yes
comm_modify vel yes

# ------------------------ FORCE FIELDS ------------------------------

#kspace_style ewald 1.0e-6
#pair_style   born/coul/long/cs 8.0
pair_style   born/coul/wolf/cs 0.25 16.0 14.5
#pair_style   born/coul/wolf 0.25 16.0 14.5

#------------------------ A,  rho, sigma=0,     C,      D
pair_coeff	*	*	 0.0000	1.0000	0.000	0.0000	0.000
pair_coeff	2	6	7149.81	0.3019	0.000	0.0000	0.000
pair_coeff	4	6	7200.27	0.2303	0.000	0.0000	0.000
pair_coeff	6	6	3719.60	0.3408	0.000	597.17	0.000
pair_modify tail no

bond_style class2
bond_coeff	1	0.0	149.255	0.0		   0.0000000
bond_coeff	2	0.0	153.070	0.0		 20.83333333
bond_coeff	3	0.0	 18.465	0.0		208.33333333
change_box all triclinic xy delta 0.159571670391 yz delta 0.132976391992 xz delta 0.132976391992 remap
  triclinic box = (0 0 0) to (40.1 40.1 48.12) with tilt (0 0 0)
  triclinic box = (0 0 0) to (40.1 40.1 48.12) with tilt (0.159572 0 0)
  triclinic box = (0 0 0) to (40.1 40.1 48.12) with tilt (0.159572 0 0.132976)
  triclinic box = (0 0 0) to (40.1 40.1 48.12) with tilt (0.159572 0.132976 0.132976)
compute dr all displace/atom
reset_timestep 0
dump dump_positions all atom 1000 atomdump
dump dump_displace all custom 1000 displdump id type c_dr[1] c_dr[2] c_dr[3]
thermo 100
thermo_style custom step etotal pe ke fnorm ecoul elong ebond temp press pxx pyy pzz lx ly lz
compute CSequ all temp/cs cores shells
thermo_modify temp CSequ
fix EF all efield 0.000289 0.000289 0.000289
fix_modify EF energy yes
min_style quickmin
minimize 0.0 1e-04 30000 100000
WARNING: Resetting reneighboring criteria during minimization (/tmp/iwtm861/spack-stage/spack-stage-WtJHS6/lammps-feature-CORESHELL-wolf/src/min.cpp:168)
Neighbor list info ...
  1 neighbor list requests
  update every 1 steps, delay 0 steps, check yes
  max neighbors/atom: 2000, page size: 100000
  master list distance cutoff = 16.5
  ghost atom cutoff = 16.5
  binsize = 8.25 -> bins = 5 5 6
Memory usage per processor = 17.9276 Mbytes
Step TotEng PotEng KinEng Fnorm E_coul E_long E_bond Temp Press Pxx Pyy Pzz Lx Ly Lz 
       0   -143372.58   -143372.58            0   0.15734111   -153381.82            0            0            0   -56323.289   -56358.426   -56305.988   -56305.452         40.1         40.1        48.12 
     100   -143372.49   -143372.49 0.0010891457   0.28864145   -153381.76            0  0.011152912  0.001404567   -56322.761   -56357.894   -56305.457    -56304.92         40.1         40.1        48.12 
     200   -143372.51   -143372.53  0.026861513    1.4799251   -153382.43            0    0.2351249  0.034640725   -56311.232   -56346.244   -56293.934    -56293.33         40.1         40.1        48.12 
     300   -143372.88   -143373.09   0.21471208    3.7318595   -153391.72            0     3.284439   0.27689363   -56153.828   -56186.371   -56137.197   -56135.052         40.1         40.1        48.12 
     400   -143375.69   -143376.88    1.1943392    8.9746757   -153457.18            0    24.716522     1.540225   -55045.552   -55071.008   -55025.459   -55031.884         40.1         40.1        48.12 
     500   -143401.46   -143410.12    8.6614542     23.54974   -154111.38            0    236.84194    11.169849   -43748.401   -43633.701   -43738.277   -43758.804         40.1         40.1        48.12 
     600   -143453.75   -143456.39    2.6404313    13.891063   -155566.97            0    694.53386    3.4051118   -17246.747   -17117.305    -17068.08   -17529.548         40.1         40.1        48.12 
     700    -143464.4   -143464.58   0.17381381     3.285954   -156294.71            0    916.10258   0.22415105   -3095.4754   -2960.5206   -2907.0824   -3417.7405         40.1         40.1        48.12 
     800   -143464.93   -143464.95   0.01927117    1.2433381   -156442.15            0    960.43169  0.024852185   -151.11362   -27.981941   -1.2756361   -423.94634         40.1         40.1        48.12 
     900   -143464.97   -143464.97 3.0044437e-06   0.14251147   -156466.87            0     967.8488 3.8745438e-06    345.16059    458.78623    471.08514    105.61137         40.1         40.1        48.12 
    1000   -143464.97   -143464.97 1.4895828e-05  0.019736614   -156471.64            0    969.28056 1.9209725e-05    441.11965     549.2695    553.84502    220.24445         40.1         40.1        48.12 
    1100   -143464.97   -143464.97 4.9669334e-08 0.0072585921   -156472.58            0    969.56069 6.4053791e-08     459.9095    565.13126    565.75593    248.84132         40.1         40.1        48.12 
    1200   -143464.97   -143464.97 3.256489e-07 0.0023166163   -156472.76            0    969.61608 4.1995824e-07    463.63222    567.32539    565.94237    257.62889         40.1         40.1        48.12 
    1300   -143464.97   -143464.97 3.2465321e-08 0.0015202061    -156472.8            0    969.62659 4.1867421e-08    464.34184    567.30869    564.99083    260.72599         40.1         40.1        48.12 
    1400   -143464.97   -143464.97 9.2536099e-09 0.00082199336   -156472.81            0     969.6292 1.1933496e-08       464.52    567.06147     564.2056    262.29293         40.1         40.1        48.12 
    1500   -143464.97   -143464.97 4.9227513e-10 0.00031379231   -156472.81            0    969.62978 6.3484017e-10    464.56073    566.87019    563.72601      263.086         40.1         40.1        48.12 
    1600   -143464.97   -143464.97 9.8645134e-12 0.00039095249   -156472.81            0    969.62991 1.272132e-11    464.57026    566.75416    563.45674    263.49989         40.1         40.1        48.12 
    1691   -143464.97   -143464.97 4.8061431e-11 9.5597359e-05   -156472.81            0    969.62993 6.1980232e-11    464.57234    566.70188    563.33926    263.67587         40.1         40.1        48.12 
Loop time of 4782.29 on 8 procs for 1691 steps with 12000 atoms

19.6% CPU use with 8 MPI tasks x no OpenMP threads

Minimization stats:
  Stopping criterion = force tolerance
  Energy initial, next-to-last, final = 
        -143372.579277     -143464.969311     -143464.969311
  Force two-norm initial, final = 0.157341 9.55974e-05
  Force max component initial, final = 0.00145714 2.69458e-06
  Final line search alpha, max atom move = 0 0
  Iterations, force evaluations = 1691 1691

MPI task timing breakdown:
Section |  min time  |  avg time  |  max time  |%varavg| %total
---------------------------------------------------------------
Pair    | 3186.8     | 3783.6     | 4511.9     | 663.6 | 79.12
Bond    | 0.18806    | 0.25186    | 0.32436    |   9.7 |  0.01
Neigh   | 0          | 0          | 0          |   0.0 |  0.00
Comm    | 265.98     | 994.15     | 1591.1     |1294.6 | 20.79
Output  | 0.062266   | 0.062706   | 0.064655   |   0.3 |  0.00
Modify  | 0.058518   | 0.078932   | 0.11368    |   6.9 |  0.00
Other   |            | 4.106      |            |       |  0.09

Nlocal:    1500 ave 1744 max 1276 min
Histogram: 2 0 0 0 4 0 0 0 0 2
Nghost:    24374 ave 24598 max 24130 min
Histogram: 2 0 0 0 0 4 0 0 0 2
Neighs:    2.16555e+06 ave 2.52006e+06 max 1.84025e+06 min
Histogram: 2 0 0 0 4 0 0 0 0 2

Total # of neighbors = 17324400
Ave neighs/atom = 1443.7
Ave special neighs/atom = 1
Neighbor list builds = 0
Dangerous builds = 0
unfix EF
min_style fire
minimize 0.0 1e-05 60000 100000
WARNING: Resetting reneighboring criteria during minimization (/tmp/iwtm861/spack-stage/spack-stage-WtJHS6/lammps-feature-CORESHELL-wolf/src/min.cpp:168)
Memory usage per processor = 18.6776 Mbytes
Step TotEng PotEng KinEng Fnorm E_coul E_long E_bond Temp Press Pxx Pyy Pzz Lx Ly Lz 
    1691   -143465.22   -143465.22            0   0.15734081   -156472.81            0    969.62993            0    464.57234    566.70188    563.33926    263.67587         40.1         40.1        48.12 
    1700   -143465.22   -143465.22 7.927507e-08   0.16365161   -156471.64            0    969.21694 1.0223348e-07    445.17913    547.28463    543.94845    244.30439         40.1         40.1        48.12 
    1800   -143465.22   -143465.22 4.6848189e-06  0.026187488   -156468.48            0     968.1969 6.041563e-06    385.44233    487.62739     484.1374    184.56224         40.1         40.1        48.12 
    1900   -143465.22   -143465.22 3.4355747e-07 0.0083820815   -156467.78            0    967.97335 4.4305322e-07    372.45652    474.79447    471.20124    171.37385         40.1         40.1        48.12 
    2000   -143465.22   -143465.22 1.470368e-07 0.0038976936    -156467.6            0    967.92735 1.896193e-07    368.26106    470.63067    466.98099    167.17151         40.1         40.1        48.12 
    2100   -143465.22   -143465.22 2.4170128e-08 0.0017742632   -156467.53            0    967.90321 3.1169903e-08    366.96843     469.4298    465.73707    165.73842         40.1         40.1        48.12 
    2200   -143465.22   -143465.22 4.3168915e-09 0.00072828908   -156467.49            0     967.8943 5.5670822e-09    366.17965    468.65181    464.93144     164.9557         40.1         40.1        48.12 
    2300   -143465.22   -143465.22 1.6649306e-09 0.00026370675   -156467.48            0    967.88944 2.1471017e-09    365.86142    468.37145    464.62656    164.58624         40.1         40.1        48.12 
    2400   -143465.22   -143465.22 2.754245e-12 0.00011662898   -156467.47            0    967.88778 3.5518865e-12    365.74557    468.27803    464.51773    164.44097         40.1         40.1        48.12 
    2500   -143465.22   -143465.22 5.3964909e-12 5.4582598e-05   -156467.47            0    967.88719 6.9593383e-12    365.70201    468.24529    464.47544     164.3853         40.1         40.1        48.12 
    2600   -143465.22   -143465.22 8.4669151e-11 0.00015568904   -156467.47            0    967.88692 1.0918971e-10    365.68311    468.24314    464.46595    164.34022         40.1         40.1        48.12 
    2700   -143465.22   -143465.22 2.7250432e-14 3.3234453e-05   -156467.47            0    967.88687 3.5142276e-14    365.67804    468.23688    464.45578    164.34147         40.1         40.1        48.12 
    2800   -143465.22   -143465.22 4.8700989e-12 3.4394316e-05   -156467.47            0    967.88684 6.2805009e-12     365.6761    468.23826    464.45488    164.33516         40.1         40.1        48.12 
    2900   -143465.22   -143465.22 1.0089998e-11 2.7844683e-05   -156467.47            0    967.88683 1.3012106e-11     365.6751    468.23924    464.45401    164.33204         40.1         40.1        48.12 
    3000   -143465.22   -143465.22 1.5610142e-13 2.3166476e-05   -156467.47            0    967.88683 2.0130907e-13    365.67468    468.23922     464.4527    164.33213         40.1         40.1        48.12 
    3100   -143465.22   -143465.22 2.985911e-13 1.9922801e-05   -156467.47            0    967.88682 3.8506439e-13     365.6745    468.24079    464.45344    164.32927         40.1         40.1        48.12 
    3200   -143465.22   -143465.22 2.6553782e-12 2.0741525e-05   -156467.47            0    967.88682 3.4243874e-12    365.67441    468.24089    464.45289    164.32947         40.1         40.1        48.12 
    3300   -143465.22   -143465.22 1.7925916e-12 1.9109003e-05   -156467.47            0    967.88682 2.311734e-12    365.67441    468.24207    464.45391    164.32727         40.1         40.1        48.12 
    3400   -143465.22   -143465.22 3.2074634e-12 2.2164906e-05   -156467.47            0    967.88682 4.1363588e-12    365.67441    468.24272    464.45438    164.32614         40.1         40.1        48.12 
    3500   -143465.22   -143465.22 2.5552604e-12 1.8641139e-05   -156467.47            0    967.88682 3.295275e-12     365.6744     468.2426    464.45407    164.32652         40.1         40.1        48.12 
    3600   -143465.22   -143465.22 2.4651759e-13 5.1773939e-05   -156467.47            0    967.88682 3.1791017e-13    365.67445    468.24445    464.45615    164.32276         40.1         40.1        48.12 
    3700   -143465.22   -143465.22 2.6890377e-14 2.9690543e-05   -156467.47            0    967.88682 3.4677948e-14    365.67435    468.24123    464.45221    164.32961         40.1         40.1        48.12 
    3800   -143465.22   -143465.22 5.2581097e-12 1.465955e-05   -156467.47            0    967.88682 6.7808813e-12    365.67439    468.24263    464.45384     164.3267         40.1         40.1        48.12 
    3900   -143465.22   -143465.22 1.3430784e-12 1.5490298e-05   -156467.47            0    967.88682 1.7320398e-12     365.6744    468.24289    464.45412    164.32618         40.1         40.1        48.12 
    4000   -143465.22   -143465.22 1.2940296e-12 1.8420673e-05   -156467.47            0    967.88682 1.6687863e-12    365.67441    468.24315    464.45443    164.32564         40.1         40.1        48.12 
    4100   -143465.22   -143465.22 9.2179011e-15 4.4338272e-05   -156467.47            0    967.88682 1.1887446e-14    365.67433     468.2407    464.45145    164.33083         40.1         40.1        48.12 
    4200   -143465.22   -143465.22 1.2760673e-14 1.671243e-05   -156467.47            0    967.88682 1.645622e-14    365.67437    468.24203    464.45304    164.32804         40.1         40.1        48.12 
    4300   -143465.22   -143465.22 1.4906324e-12 1.1081827e-05   -156467.47            0    967.88682 1.9223261e-12    365.67439    468.24269    464.45384    164.32663         40.1         40.1        48.12 
    4400   -143465.22   -143465.22 1.4730551e-13 1.0982987e-05   -156467.47            0    967.88682 1.8996583e-13    365.67438    468.24242    464.45351     164.3272         40.1         40.1        48.12 
    4459   -143465.22   -143465.22 1.3306094e-12 9.9129312e-06   -156467.47            0    967.88682 1.7159597e-12    365.67439    468.24263    464.45376    164.32677         40.1         40.1        48.12 
Loop time of 7403.36 on 8 procs for 2768 steps with 12000 atoms

20.2% CPU use with 8 MPI tasks x no OpenMP threads

Minimization stats:
  Stopping criterion = force tolerance
  Energy initial, next-to-last, final = 
        -143465.217781     -143465.218172     -143465.218172
  Force two-norm initial, final = 0.157341 9.91293e-06
  Force max component initial, final = 0.0014585 3.06597e-07
  Final line search alpha, max atom move = 0 0
  Iterations, force evaluations = 2768 2768

MPI task timing breakdown:
Section |  min time  |  avg time  |  max time  |%varavg| %total
---------------------------------------------------------------
Pair    | 5976.4     | 6363.4     | 6606       | 237.7 | 85.95
Bond    | 0.40403    | 0.4796     | 0.59152    |   7.7 |  0.01
Neigh   | 0          | 0          | 0          |   0.0 |  0.00
Comm    | 791.14     | 1033.6     | 1420.6     | 589.6 | 13.96
Output  | 0.18335    | 0.18425    | 0.18713    |   0.3 |  0.00
Modify  | 0          | 0          | 0          |   0.0 |  0.00
Other   |            | 5.698      |            |       |  0.08

Nlocal:    1500 ave 1500 max 1500 min
Histogram: 8 0 0 0 0 0 0 0 0 0
Nghost:    24374 ave 24374 max 24374 min
Histogram: 8 0 0 0 0 0 0 0 0 0
Neighs:    2.17455e+06 ave 2.18527e+06 max 2.16639e+06 min
Histogram: 1 2 0 1 0 2 1 0 0 1

Total # of neighbors = 17396400
Ave neighs/atom = 1449.7
Ave special neighs/atom = 1
Neighbor list builds = 0
Dangerous builds = 0
reset_timestep 0
variable la equal lx
variable lb equal ly
variable lc equal lz
fix AVE_LAT all ave/time 1 30000 40000 v_la v_lb v_lc file ave_lat
fix AVE_ATOM all ave/atom 1 30000 40000 c_dr[1] c_dr[2] c_dr[3]
dump core_displ all custom 40000 displcoredump id type f_AVE_ATOM[1] f_AVE_ATOM[2] f_AVE_ATOM[3]
variable TEMP equal temp
fix AVE_T all ave/time 1 30000 40000 v_TEMP file ave_temp
velocity all create 5 146981634 dist gaussian mom yes rot no bias yes temp CSequ
Neighbor list info ...
  1 neighbor list requests
  update every 1 steps, delay 10 steps, check yes
  max neighbors/atom: 2000, page size: 100000
  master list distance cutoff = 16.5
  ghost atom cutoff = 16.5
  binsize = 8.25 -> bins = 5 5 6
timestep 0.0004
velocity all scale 5 temp CSequ
fix NPT all npt temp 5 5 0.100000 tri 1. 1. 0.100000
fix_modify NPT temp CSequ
run 10000
Memory usage per processor = 21.0002 Mbytes
Step TotEng PotEng KinEng Fnorm E_coul E_long E_bond Temp Press Pxx Pyy Pzz Lx Ly Lz 
       0   -143461.34   -143465.22     3.877158 9.9115462e-06   -156467.47            0    967.88682            5    419.19465     522.1471    517.25617    218.18067         40.1         40.1        48.12 
     100   -143461.47    -143463.6    2.1262672    8.2052784   -156507.54            0    992.93524    2.7420435   -3.2970038   -23.545202   -22.664692    38.073323     40.10779    40.106963    48.128309 
     200   -143461.37   -143463.09    1.7238306    8.4774858   -156478.53            0    977.47407    2.2230595   -1.3504634    26.857239    26.538216   -55.843685    40.101916    40.102206    48.132084 
     300   -143461.21    -143463.5    2.2937582    7.6808045   -156476.32            0    976.03574    2.9580407    8.8293061    14.499497    14.063852  -0.17570847    40.101345    40.101226    48.132876 
     400   -143461.04   -143462.88    1.8341171    8.6412564    -156496.7            0    986.02063    2.3652855    4.9595099    14.754258    15.731916   -13.437122    40.107277    40.106834    48.129835 
     500   -143460.86    -143463.2    2.3364641    8.1134288   -156470.26            0     974.1161    3.0131143   -9.9424413   -5.6766045   -5.5661041   -17.150682    40.105126    40.104357    48.120362 
     600   -143460.67   -143463.07    2.4086658     8.196268   -156500.89            0    988.72334    3.1062259    16.700588      20.1692    21.045666    11.130465    40.109939    40.110127    48.121956 
     700   -143460.46   -143462.94    2.4781811    8.6388409   -156475.24            0    975.33678    3.1958732   -14.918708   -11.557645   -11.890083    -19.28469     40.10746    40.105896    48.122744 
     800   -143460.25   -143462.84    2.5926902    8.7013035   -156477.51            0    977.98743    3.3435446    18.184572    17.048517    17.638592    21.698083    40.103085    40.102812    48.126587 
     900   -143460.02    -143462.5    2.4798426    9.2103167   -156504.49            0    989.93142    3.1980159   -12.786897   -11.947098   -12.125384   -12.048064    40.106241    40.106309    48.137208 
    1000   -143459.79   -143462.47     2.680258    9.2911824   -156461.16            0     969.7584    3.4564725    12.452801    10.968456    11.278174    16.995964    40.099295     40.09991    48.128961 
    1100   -143459.56   -143462.31    2.7538433    9.4514495   -156492.43            0    984.59215    3.5513684   -2.7386513   -3.0714329   -3.5248715   0.20851793    40.108444    40.107034    48.126578 
    1200   -143459.33   -143462.27    2.9442479    9.4290312   -156496.23            0     987.0591     3.796915   -1.0531351    -3.281741   -3.5358641    5.4306281    40.109991    40.109144    48.122178 
    1300   -143459.09   -143462.29    3.2047559    9.3884583   -156462.64            0    970.65318    4.1328672    7.3225988    4.8791139    5.1537071    13.731614    40.106644    40.104401    48.115968 
    1400   -143458.85   -143462.01    3.1589619    9.8454921   -156499.64            0    987.25116    4.0738112   -8.8227255   -11.230907   -11.725475    -1.351026    40.111345    40.110025    48.126749 
    1500   -143458.62   -143462.08    3.4606169    9.7391117   -156473.44            0    976.49094    4.4628267    11.321904      10.4966    10.595297    15.526313    40.100956     40.10183    48.129662 
    1600   -143458.39   -143461.91    3.5220615    10.020226   -156484.37            0    980.97723     4.542066   -14.095893   -15.662351   -16.515121   -7.2386774    40.101784    40.105283    48.133932 
    1700   -143458.17   -143461.71    3.5448625    10.112969   -156494.82            0    985.97836    4.5714702    11.275497    9.1551183    9.3247242    18.056035    40.104419    40.105659    48.134713 
    1800   -143457.96   -143461.42    3.4585187    10.612316   -156460.26            0     969.9713    4.4601209     -10.4576   -11.253926   -11.545162   -6.1888384    40.104824    40.103365    48.119981 
    1900   -143457.77   -143461.27    3.4905679    10.724863   -156508.03            0    992.80172    4.5014517    2.4728083    1.6297286    1.1650866    7.0471848    40.113362    40.110924    48.124084 
    2000   -143457.61   -143461.56    3.9591832    10.528674   -156470.58            0     974.3022      5.10578  -0.42094109   -1.1094739   -1.5290516    3.2555432    40.109056    40.105542    48.118727 
    2100   -143457.48   -143461.45     3.973334    10.513706   -156469.97            0    974.09116    5.1240289   -6.0247903   -7.4345583    -8.480628  0.046555217    40.106017    40.105075     48.12301 
    2200   -143457.37   -143461.44    4.0662807    10.647661   -156511.51            0    994.81949    5.2438934    9.0678853    8.5856033    9.5761837    11.990011    40.105715    40.107139    48.138163 
    2300   -143457.29   -143461.47    4.1727654     10.69747   -156458.41            0    969.01024    5.3812166   -16.181002   -17.674864   -18.497971   -9.1195161     40.09793    40.101851    48.129984 
    2400   -143457.28   -143461.38    4.1044556    10.618715   -156493.24            0    985.49543    5.2931239    19.763451    19.803312    20.644111    21.836299    40.105171    40.106334    48.132143 
    2500   -143457.31   -143461.23    3.9171492    10.837082   -156484.96            0    981.34564    5.0515728   -18.741737   -22.917686   -22.511288   -8.3042825    40.108709    40.109543    48.122696 
    2600   -143457.38   -143461.26    3.8772389    10.862767   -156470.02            0     975.3875    5.0001042    17.288711    14.838573    16.739124    22.621539    40.108169     40.10589    48.114707 
    2700   -143457.47   -143461.43    3.9580465    10.673672   -156501.02            0    988.46401     5.104314   -8.7171643   -14.549428   -10.716374    1.3453627    40.113057    40.110075    48.125586 
    2800   -143457.58   -143461.51    3.9300135    10.450723   -156465.37            0    972.64581    5.0681627    1.8713996    -1.017865    1.6277082    7.2972685      40.1044     40.10181    48.123651 
    2900   -143457.67   -143461.64    3.9709916    10.422525    -156494.2            0    986.53206    5.1210082    9.1299088   0.34011363    9.8936149    19.769505    40.102662    40.104089    48.136366 
    3000   -143457.74    -143461.6    3.8613147    10.435204   -156490.04            0    983.33566    4.9795684   -21.987863   -27.461359   -23.943275    -11.83226     40.10427    40.105251    48.136277 
    3100   -143457.78   -143461.58    3.7931032    10.539612   -156459.07            0    969.43591    4.8916025    26.854468    17.819148     33.20109    31.916262    40.101613    40.102461    48.122142 
    3200    -143457.8   -143461.55     3.748158    10.574054   -156505.68            0    990.76491     4.833641   -32.158204   -40.502875   -36.229634   -17.349637    40.112582    40.112563    48.126051 
    3300   -143457.78   -143461.44     3.660315      10.7118   -156477.11            0    978.98519    4.7203583    21.417791     15.59413    30.776446    20.188343    40.108283    40.106997    48.115293 
    3400   -143457.73   -143461.67    3.9364094    10.456956   -156472.06            0    974.55146    5.0764108   -18.370732   -27.383786   -22.687388   -2.6611798    40.107761    40.105131    48.123608 
    3500   -143457.67   -143461.55    3.8773589    10.491152   -156503.65            0    990.78598    5.0002591     7.149212      7.61082    17.097745  -0.69267754     40.10814    40.107118    48.131909 
    3600   -143457.59   -143461.48    3.8958448    10.619875   -156463.14            0    971.46545    5.0240985   -2.8300145   -8.3989348   -4.3514606    6.6785113    40.098586    40.099794    48.132564 
    3700   -143457.52   -143461.48    3.9609048    10.516334   -156495.39            0    985.93632    5.1080002   -5.1545031   -1.6780131    1.7713322    -12.84448    40.105647    40.106099    48.135624 
    3800   -143457.45   -143461.32    3.8691664     10.78226   -156478.08            0    978.40719    4.9896939    11.028946     7.831958    11.059675    16.820358     40.10565    40.106354    48.123893 
    3900    -143457.4   -143461.34    3.9362544    10.811232   -156474.11            0    976.70679    5.0762109   -15.913293   -10.612461    -9.895974   -24.753567    40.107215    40.107076    48.119982 
    4000   -143457.39   -143461.34    3.9575725    10.810615   -156508.01            0     993.0634    5.1037028    15.916653    16.761903    20.138919     13.44256    40.113168    40.111941     48.12174 
    4100    -143457.4   -143461.37    3.9715962    10.779359   -156454.25            0    966.30881    5.1217878   -16.846766   -12.032924    -12.24817   -23.723521    40.104949    40.102171    48.121484 
    4200   -143457.44   -143461.39    3.9555494    10.770139   -156495.86            0    987.07096    5.1010938    13.992426    17.034235    19.947313    7.3990935    40.105604    40.105116    48.133545 
    4300    -143457.5   -143461.36    3.8632968    10.817149   -156490.69            0    984.22504    4.9821244   -12.387283   -6.7817912   -7.2225934   -20.773669    40.103385    40.103106    48.138522 
    4400   -143457.57   -143461.45     3.878632    10.625007   -156460.62            0    970.10673    5.0019008    6.3001818    12.534371    13.471482   -4.6547753    40.099956    40.100712    48.128657 
    4500   -143457.64   -143461.55    3.9028649     10.44523   -156505.43            0    991.13261    5.0331517  -0.20001955    5.4067354    4.9123637   -8.2062096    40.110972    40.110814    48.126895 
    4600    -143457.7    -143461.5    3.7958056    10.536653   -156472.07            0    975.89058    4.8950876   -6.2805824   0.77746302    1.4760825   -18.377027    40.106912    40.107223    48.117668 
    4700   -143457.74   -143461.53    3.7844928    10.569397   -156482.88            0    980.70849    4.8804985    11.313535    16.213319     16.32305    3.8547521     40.11005     40.10764    48.118895 
    4800   -143457.75   -143461.61    3.8601441    10.445074   -156490.24            0    983.09441    4.9780588   -12.538186   -3.5694146   -4.2111849   -27.417288    40.108195    40.106835    48.130283 
    4900   -143457.74   -143461.51    3.7716499    10.602471   -156466.17            0    973.50233    4.8639362     16.92673    22.218097    22.221812    8.7901156    40.098997    40.098326      48.1324 
    5000   -143457.71   -143461.55    3.8412953    10.512347   -156504.32            0    990.59824    4.9537513   -15.021986   -7.1623479    -8.809871   -26.752149    40.105324    40.105749    48.139908 
    5100   -143457.65   -143461.61    3.9582833    10.413937   -156473.07            0    976.13279    5.1046194    14.963081    19.566503    19.632466    8.3518291    40.102417     40.10261    48.128628 
    5200   -143457.58    -143461.5     3.914587    10.611783   -156474.07            0    976.31588    5.0482686    -7.718542    0.2468772   -2.5183916   -18.221223    40.107673     40.10854    48.118027 
    5300   -143457.52   -143461.44    3.9185746    10.688433   -156507.31            0    992.33342    5.0534109    2.3836527    5.9445526    5.6626132   -1.8447636    40.112711    40.113223    48.122061 
    5400   -143457.46   -143461.42    3.9537855    10.577511   -156457.41            0    968.65044    5.0988191    5.2671095    9.6731688    5.2420898    3.5549464    40.105626    40.104726    48.115345 
    5500   -143457.43   -143461.31    3.8797343    10.895596   -156492.85            0     984.7661    5.0033224   -10.781849   -8.2482193     -8.99259   -12.774939    40.106638    40.106454    48.133231 
    5600   -143457.42   -143461.42    3.9984929    10.727384   -156491.62            0    985.77065     5.156474    17.980761    20.228171    13.931371    22.142574    40.101293    40.101188    48.138821 
    5700   -143457.44   -143461.44     4.000019    10.762144   -156465.35            0    972.12608     5.158442   -23.691518   -20.513167   -24.473164   -23.548285    40.100616    40.100681    48.132604 
    5800   -143457.48   -143461.43    3.9519426    10.742238   -156503.35            0    990.21689    5.0964424    27.365201    23.993464    15.845481    44.421123    40.108572    40.108107    48.130617 
    5900   -143457.54   -143461.47    3.9342309    10.559124   -156462.53            0    970.60543    5.0736014   -23.713714   -20.611128   -27.354328   -20.885481    40.107248     40.10862    48.114231 
    6000   -143457.59   -143461.46     3.863257      10.7075   -156492.73            0    985.74751    4.9820732    20.137404    11.314743    1.9050017    49.944639    40.111421    40.110939    48.116947 
    6100   -143457.64   -143461.61    3.9647999    10.494788   -156490.28            0    983.78712    5.1130233   -5.0383131   -2.5140928    -12.95944    2.9134536    40.109583    40.109122    48.123529 
    6200   -143457.69   -143461.55    3.8653006    10.469304   -156460.55            0    970.03159    4.9847086   -2.0740413    -13.74785   -23.931267    33.950767      40.1011    40.100609    48.127713 
    6300   -143457.71   -143461.51    3.7937179    10.614228   -156510.89            0    994.35074    4.8923952     19.52803    19.882078    7.0523519    34.070277    40.103901       40.105     48.14223 
    6400   -143457.72   -143461.54    3.8257856    10.572906   -156467.99            0    973.01603    4.9337499   -24.752283   -35.549287   -42.417423    6.0573225    40.103099    40.102548    48.129539 
    6500    -143457.7   -143461.56    3.8638204    10.512414   -156475.33            0    977.05069    4.9827997    30.485351    27.742746    17.258533    48.815577    40.105896     40.10646    48.120676 
    6600   -143457.67    -143461.5    3.8292175    10.670942   -156502.34            0    989.35386    4.9381756   -25.881672   -33.855402   -37.742741   -3.7275869    40.114522    40.114038    48.119527 
    6700   -143457.63   -143461.46    3.8341814    10.571608   -156465.11            0    973.17323    4.9445772    19.227982    13.343281    7.4295859    39.516764    40.107225    40.105542    48.112829 
    6800   -143457.58   -143461.44    3.8637196    10.646997   -156494.92            0    985.71875    4.9826697   -11.526606   -15.636317   -17.006354   0.83939572    40.108439     40.10735    48.130844 
    6900   -143457.53   -143461.45    3.9280429    10.570668   -156480.77            0     979.7171    5.0656213     3.932358  -0.79018062   -4.9350564    20.175086    40.101417    40.103212    48.134098 
    7000   -143457.49   -143461.35    3.8649594    10.697942   -156472.77            0     976.1945    4.9842686    3.7180033    2.0406797   0.37789583    11.126103    40.098717    40.100137    48.136379 
    7100   -143457.46   -143461.24     3.787031    10.966772   -156502.37            0    989.39763    4.8837718   -9.8586522   -15.160297   -17.171229    5.2460092     40.10944    40.109361    48.130878 
    7200   -143457.44   -143461.43    3.9902683    10.585444   -156461.07            0    970.67953    5.1458675    16.868468    16.924297    15.466967    20.797109    40.106012     40.10525    48.114624 
    7300   -143457.46   -143461.44    3.9752617      10.6183    -156495.2            0    986.45782    5.1265149   -17.485899   -20.454832   -21.440295   -7.8586926    40.114563    40.111407    48.117319 
    7400   -143457.49   -143461.43    3.9365739    10.689896   -156493.35            0    986.22977     5.076623    18.243517     19.78202    18.010524    19.371624    40.110961    40.108468    48.120406 
    7500   -143457.54   -143461.55    4.0135931    10.491243   -156456.94            0     967.6288    5.1759473   -13.253513   -15.795719   -15.423644   -5.8476802    40.101001    40.100372    48.129033 
    7600   -143457.59   -143461.42    3.8342489    10.691268   -156507.35            0    992.30544    4.9446642    10.890876    14.020676    12.259551    9.1190396    40.103246    40.106175    48.141617 
    7700   -143457.64   -143461.43    3.7958471    10.654798   -156471.18            0    975.28175    4.8951411   -3.4796587   -5.0548082   -3.2345612    0.3034643    40.100063    40.100337    48.134313 
    7800   -143457.68   -143461.52    3.8454871     10.46718   -156480.54            0     979.4759     4.959157   -1.9852453    1.1493115  -0.66324717   -3.7915476    40.107017     40.10651    48.123763 
    7900    -143457.7   -143461.49    3.7850421    10.569516   -156497.93            0    987.82834    4.8812069    14.210101    14.707618     17.87396    12.261516    40.112847    40.110686    48.119537 
    8000    -143457.7   -143461.55    3.8478807    10.508215   -156462.88            0    971.13533    4.9622439   -11.095412   -6.3625728   -8.2522044   -16.434732    40.107984    40.105737    48.114963 
    8100   -143457.69   -143461.59    3.9032192    10.559162    -156502.8            0    990.36396    5.0336085    17.832775    27.372611    32.136917   -3.4305713    40.110189    40.108367    48.126922 
    8200   -143457.66    -143461.5    3.8348038    10.655585   -156469.74            0    973.28122    4.9453798   -9.3051937   -6.9852988   -5.9803797   -12.419287    40.100617    40.102461    48.134551 
    8300   -143457.62   -143461.45    3.8373818    10.693653   -156478.76            0    979.60963    4.9487044    14.796405    27.919081    30.214258   -11.046046    40.099136    40.100668    48.135734 
    8400   -143457.57   -143461.45    3.8790599    10.678514   -156505.61            0    991.13233    5.0024527   -11.701978   -12.310742   -7.0243912   -13.082811    40.107569    40.107414    48.136197 
    8500   -143457.52   -143461.45    3.9252605    10.637152   -156458.09            0    969.14057    5.0620331    9.1006879    20.998368    22.806831   -14.016137    40.104384     40.10298    48.118493 
    8600   -143457.49   -143461.42    3.9336129     10.66837   -156494.83            0    985.93552    5.0728044   -4.7940173   -4.3277002    1.4427588   -8.7276609     40.11346    40.111865    48.118341 
    8700   -143457.47   -143461.41    3.9388366    10.725458   -156487.56            0    982.81964     5.079541   -4.0403018    5.9330032    6.9962259   -22.512273    40.110383    40.108017    48.121942 
    8800   -143457.46   -143461.45    3.9916979    10.612228   -156464.82            0    972.36924    5.1477111    7.2766082    8.6187199    14.646605    0.9714609    40.103555    40.102873    48.123036 
    8900   -143457.48   -143461.41    3.9295636    10.724764   -156502.43            0    989.17762    5.0675824   -13.122458   -3.9007359    -2.995154   -30.085999      40.1037    40.105906    48.142653 
    9000    -143457.5   -143461.41    3.9066542      10.6851   -156470.65            0    975.84115    5.0380384    15.196716    19.075979    23.196034    5.5693545     40.09875    40.099382    48.133447 
    9100   -143457.54   -143461.49    3.9403793    10.622094   -156487.14            0    982.33831    5.0815305   -16.774499   -8.9979496   -8.7269406   -29.941153    40.106522    40.106403    48.129587 
    9200    -143457.6   -143461.38    3.7763209    10.696674   -156491.03            0    984.39974      4.86996    15.637837    21.610228    25.035666    2.9084142    40.110094    40.109003    48.121972 
    9300   -143457.64   -143461.44    3.8004929    10.647292   -156461.03            0    970.12875    4.9011322   -9.7399281   -3.4351763   -2.2622859   -21.204472    40.108232    40.106966    48.112761 
    9400   -143457.67   -143461.53    3.8583719    10.609021   -156508.25            0    992.88689    4.9757733    5.7848605    14.160375    15.377386   -9.7385476    40.112271    40.109276    48.127054 
    9500   -143457.69   -143461.49    3.7993234    10.557918   -156470.51            0    974.94918    4.8996241    3.0381988    7.9861066    8.3152562   -4.7121034    40.102694    40.102484    48.127778 
    9600   -143457.69   -143461.56    3.8677815     10.48996   -156476.97            0    977.60436    4.9879079   -4.5652418    3.1972324    2.9767963   -17.456317    40.100117    40.100806    48.137785 
    9700   -143457.67   -143461.56     3.891084     10.51123   -156505.44            0    991.63859    5.0179589    11.166322     16.04554    16.583294     3.295383    40.104431    40.105928    48.138503 
    9800   -143457.65   -143461.45    3.8026951    10.619172   -156458.28            0     968.6984    4.9039723   -11.696555   -3.8495056   -4.8820551   -23.797539    40.103535    40.103701    48.121335 
    9900    -143457.6   -143461.44    3.8396382    10.639576   -156496.73            0    987.03914    4.9516143    13.957866    17.421616    16.986548      9.89745    40.110933    40.111345    48.121215 
   10000   -143457.56   -143461.44    3.8772758    10.678556   -156481.88            0    980.09648    5.0001518   -11.685252   -6.2189305   -7.3024391   -19.059219    40.111385    40.109034    48.117013 
Loop time of 23647.5 on 8 procs for 10000 steps with 12000 atoms

Performance: 0.015 ns/day, 1642.185 hours/ns, 0.423 timesteps/s
20.2% CPU use with 8 MPI tasks x no OpenMP threads

MPI task timing breakdown:
Section |  min time  |  avg time  |  max time  |%varavg| %total
---------------------------------------------------------------
Pair    | 19744      | 20316      | 20790      | 245.9 | 85.91
Bond    | 1.6012     | 1.6721     | 1.7817     |   4.2 |  0.01
Neigh   | 0          | 0          | 0          |   0.0 |  0.00
Comm    | 2823.3     | 3297       | 3868.4     | 610.3 | 13.94
Output  | 0.59065    | 0.59483    | 0.6011     |   0.4 |  0.00
Modify  | 26.048     | 26.149     | 26.222     |   1.1 |  0.11
Other   |            | 6.346      |            |       |  0.03

Nlocal:    1500 ave 1500 max 1500 min
Histogram: 8 0 0 0 0 0 0 0 0 0
Nghost:    24374 ave 24374 max 24374 min
Histogram: 8 0 0 0 0 0 0 0 0 0
Neighs:    2.17455e+06 ave 2.18384e+06 max 2.16808e+06 min
Histogram: 2 0 1 1 1 1 1 0 0 1

Total # of neighbors = 17396400
Ave neighs/atom = 1449.7
Ave special neighs/atom = 1
Neighbor list builds = 0
Dangerous builds = 0
unfix NPT
fix NPT all npt temp 5 5 0.100000 tri 1. 1. 0.100000
fix_modify NPT temp CSequ
run 30000
Memory usage per processor = 21.0002 Mbytes
Step TotEng PotEng KinEng Fnorm E_coul E_long E_bond Temp Press Pxx Pyy Pzz Lx Ly Lz 
   10000   -143457.56   -143461.44    3.8772758    10.678556   -156481.88            0    980.09648    5.0001518   -11.685252   -6.1903234   -7.2472075    -19.11689    40.111385    40.109034    48.117013 
   10100   -143457.57   -143461.37    3.8024588    10.674003   -156474.29            0    977.18004    4.9036675    15.729239    20.419386    19.874719    9.3500202    40.105405    40.104232     48.12266 
   10200   -143457.57   -143461.43    3.8621234    10.600232   -156501.14            0    988.89453    4.9806113   -22.466061   -20.062088   -21.295217   -23.605331    40.105787    40.106784    48.137755 
   10300   -143457.57   -143461.49    3.9170804    10.523886   -156461.19            0    970.02638     5.051484    19.002461    24.100351    22.667237    12.809159    40.097503    40.099872    48.133247 
   10400   -143457.58    -143461.5    3.9228522    10.543563   -156494.01            0    986.16179    5.0589274   -26.111503   -29.293742   -29.459981   -16.939506    40.105129    40.104907     48.13531 
   10500    -143457.6   -143461.47    3.8639502    10.617648   -156487.73            0    982.23719    4.9829671    3.8975457    11.017456    10.406678   -7.2494071    40.109661    40.108681    48.123456 
   10600   -143457.63   -143461.42    3.7836123    10.699556   -156462.38            0    971.16761     4.879363    11.766949    1.0718177    1.0831062    35.409506    40.106704    40.105423    48.114757 
   10700   -143457.66   -143461.49     3.828137    10.628729   -156506.45            0    991.72661    4.9367823   -63.874844   -55.064212   -55.971459   -78.122429    40.115045    40.113089    48.122829 
   10800   -143457.69   -143461.41    3.7198019    10.696601   -156472.24            0    975.49315    4.7970729     77.55722    63.158124    62.085369    110.01114    40.103418    40.104495    48.122472 
   10900   -143457.69   -143461.56    3.8696052     10.52902   -156474.62            0    976.57812    4.9902598    -93.10839   -88.762135   -87.365581   -100.57519    40.101642    40.103796    48.135369 
   11000   -143457.68   -143461.52    3.8374395    10.510601   -156500.17            0    988.17641    4.9487788    68.556031     56.58898     54.00375    97.649579    40.103655    40.105152    48.137685 
   11100   -143457.65   -143461.41    3.7603456    10.626142   -156463.75            0    972.27178    4.8493581   -31.619708   -31.494333   -29.327288   -31.597889    40.102742    40.100575    48.127007 
   11200    -143457.6    -143461.5    3.9004421    10.565957   -156499.93            0     988.6337    5.0300272   -9.4030429   -17.388684   -21.545327    13.334145    40.112527    40.111075    48.122169 
   11300   -143457.56   -143461.43    3.8663663    10.574736   -156477.12            0    977.83853    4.9860829    57.843193     51.59308    54.651079    69.802757    40.109016    40.107069    48.116228 
   11400   -143457.55    -143461.4    3.8554791    10.763536   -156474.69            0     977.2669    4.9720427   -62.802838   -63.546841   -66.956351   -55.411617    40.108346    40.108406    48.118728 
   11500   -143457.54   -143461.44    3.8924118    10.712079   -156505.35            0    991.09584    5.0196713    68.482739    58.961133    60.441849    88.596891    40.107135    40.108584    48.130794 
   11600   -143457.55   -143461.38    3.8272378    10.646329   -156456.04            0    967.84503    4.9356226   -35.587603   -33.728648   -36.365725     -34.0663    40.097048     40.10023     48.13296 
   11700   -143457.56   -143461.38    3.8230059    10.768988   -156499.14            0    988.76021    4.9301652    24.719457    16.372276    17.483231    42.759699     40.10484    40.103728    48.136742 
   11800   -143457.57   -143461.44    3.8645163    10.653477   -156488.73            0    983.58769    4.9836972  -0.28662502    2.7680629    2.1682303   -3.3043759    40.106773    40.105125    48.129367 
   11900   -143457.59   -143461.44    3.8487696    10.589137   -156463.57            0    971.65609    4.9633902   -6.4341167   -11.714283   -12.123303    7.1609367    40.107719    40.105477    48.115275 
   12000   -143457.61   -143461.51    3.9007913    10.571046   -156504.24            0    990.22371    5.0304775    18.570001      21.5618    22.219956     14.61658    40.114322    40.112837    48.120024 
   12100   -143457.64   -143461.51    3.8697987     10.50486   -156467.75            0    973.63874    4.9905094   -21.928962   -24.671028   -25.796578   -12.681634    40.106067    40.105879    48.119628 
   12200   -143457.66   -143461.51    3.8480933    10.548285   -156486.89            0    982.57749     4.962518    20.185757     23.89578    26.141198    13.180918    40.103648    40.105375    48.131031 
   12300   -143457.67    -143461.5    3.8297645    10.625706   -156491.03            0    984.00416     4.938881   -18.582228   -18.194077    -20.92319   -14.320042    40.101963    40.102956    48.141743 
   12400    -143457.7   -143461.54    3.8410728    10.490513   -156465.98            0    973.28934    4.9534643    2.7836007    5.0715901    8.2989019   -2.7135084    40.101532    40.099279    48.129206 
   12500   -143457.71   -143461.58    3.8711723    10.496689   -156502.87            0    989.25041    4.9922807    13.012114    14.200333    12.138456    15.165482    40.110369     40.10905    48.129681 
   12600    -143457.7   -143461.47    3.7696224    10.634186   -156468.67            0    974.23205    4.8613215   -61.396765   -61.640151     -55.9798   -64.071107    40.109288    40.107657     48.11561 
   12700   -143457.67   -143461.54    3.8789654    10.497903   -156477.68            0    977.13253    5.0023308    63.058305     71.96529    69.674736    50.150942    40.109918    40.108852    48.115629 
   12800   -143457.62   -143461.43    3.8093155    10.535388    -156503.5            0    990.91129      4.91251   -72.177624   -78.780961   -74.074456   -61.213623    40.110681    40.109621    48.129496 
   12900   -143457.58   -143461.35    3.7691827    10.681944   -156460.92            0    970.30426    4.8607545     24.23433    36.699235    37.176611     1.112899    40.098363    40.100508    48.129959 
   13000   -143457.55   -143461.48    3.9223014    10.644463   -156495.17            0    985.63013    5.0582171    10.862858    2.0348438    3.2724147    29.754919    40.102122    40.102872    48.143377 
   13100   -143457.54   -143461.43    3.8857584    10.754551   -156484.05            0    982.22211    5.0110911   -56.219725   -42.484797    -38.60758   -85.055968    40.103361    40.103932    48.132851 
   13200   -143457.53   -143461.41    3.8733902    10.762749   -156468.91            0    972.96892    4.9951409    71.609574    63.709238    61.088654    92.574723    40.105759    40.105228    48.120399 
   13300   -143457.54   -143461.41     3.865267     10.67081   -156501.46            0    990.08688    4.9846653   -52.968395   -43.366746   -36.605229   -76.659253    40.113934    40.112677     48.11961 
   13400   -143457.56   -143461.39    3.8321233     10.62309   -156466.59            0     972.7362     4.941923    34.671014     30.44709    28.209375    47.563944    40.109364    40.106034    48.113331 
   13500   -143457.57   -143461.47    3.8994027    10.678851   -156494.58            0    986.78366    5.0286868    1.9400924    7.4300643    12.767567   -12.180366    40.106515    40.106491    48.129549 
   13600    -143457.6   -143461.47    3.8734433    10.633057   -156487.72            0    982.84538    4.9952095   -6.2787368   -6.3163395   -9.5462622  -0.58352972    40.102389    40.103509    48.137116 
   13700   -143457.63   -143461.43    3.7996276    10.623426   -156462.55            0    970.72692    4.9000164    21.732919    23.285619    27.849547    16.602736    40.097819    40.098627    48.134844 
   13800   -143457.66   -143461.48    3.8252869    10.675097   -156507.03            0    992.48253    4.9331067     -12.0639   -9.8172145   -11.181509   -12.740454    40.107987    40.107644    48.134009 
   13900   -143457.68   -143461.54    3.8567513     10.51745   -156469.28            0    973.93291    4.9736833    13.633991     14.41868    17.108924    11.764481    40.107347      40.1066    48.117332 
   14000   -143457.69   -143461.54     3.844458    10.477466   -156480.18            0     979.7392    4.9578299   0.12706598    5.1699289    4.1746257   -6.6135274    40.110452    40.108118    48.116124 
   14100   -143457.68   -143461.48    3.8062397     10.66806   -156500.44            0    988.68824    4.9085434   -6.7725927    -8.588434   -7.2344697   -2.0343213    40.114041    40.111117    48.121021 
   14200   -143457.62   -143461.57    3.9514306    10.477187   -156463.76            0    971.90386    5.0957822    18.561754    26.447191    26.595996    5.2022121    40.100425    40.100781    48.127746 
   14300   -143457.56   -143461.46    3.8981008    10.610313   -156494.81            0    985.82265    5.0270079   -32.384958   -33.601809   -35.395949   -25.447305    40.103373    40.104553    48.140803 
   14400   -143457.54   -143461.39    3.8574265    10.718575    -156479.4            0    978.44705    4.9745541    50.714987    62.718464    64.687067    27.412691    40.100607    40.101804     48.13568 
   14500   -143457.52   -143461.47    3.9413403    10.568186   -156474.28            0    977.69832    5.0827698   -94.600881   -100.03633   -108.57861   -72.789321    40.105298    40.105359    48.125411 
   14600   -143457.52    -143461.4    3.8794846    10.694536    -156502.2            0    988.71703    5.0030003    51.023994    66.362819    73.868075    15.163111    40.113574    40.112313    48.120624 
   14700   -143457.53   -143461.41    3.8787487    10.606349   -156461.28            0    970.65368    5.0020514   -10.670351   -13.719096   -25.227071     9.174104    40.108923    40.105099    48.113176 
   14800   -143457.55   -143461.41    3.8604155     10.75321   -156491.99            0    984.79142    4.9784087   -74.267292   -65.790006    -59.91089   -94.707826    40.112012    40.109508    48.124352 
   14900   -143457.58   -143461.41    3.8304976    10.716095   -156489.93            0    983.30403    4.9398265    96.244136     98.00035    86.574627    106.64321    40.103218    40.102911    48.134454 
   15000   -143457.61    -143461.5    3.8881164    10.593432   -156459.39            0    969.84724     5.014132   -111.88605   -110.08981    -105.6821    -117.2442    40.098291    40.099582    48.136356 
   15100   -143457.63   -143461.44    3.8123899    10.676011   -156508.63            0    992.36966    4.9164747    75.596719    81.313381    73.036004    75.124065     40.10501    40.106583     48.13787 
   15200   -143457.64   -143461.44     3.799198    10.674477   -156469.77            0    975.01382    4.8994624   -40.406658   -41.312747   -41.423221   -36.006329    40.103519    40.106211    48.123063 
   15300   -143457.64    -143461.5    3.8550016    10.484183   -156481.53            0    979.74342     4.971427    3.6159595    9.8252098    5.2736449   -2.0306858    40.111026    40.110513    48.115087 
   15400   -143457.64   -143461.47     3.831796    10.618612   -156495.22            0    986.06571    4.9415009     29.19028    22.433032    20.564892    46.949407     40.11351    40.110998    48.117773 
   15500   -143457.61   -143461.48    3.8716068    10.576307    -156463.3            0     971.7517    4.9928411   -38.133877   -31.966673   -34.216404   -45.771324     40.10585     40.10294    48.121386 
   15600   -143457.55   -143461.49     3.938682    10.638328   -156504.03            0    990.66721    5.0793415    49.289817    42.484726    37.749972    70.376183    40.105039    40.104098     48.13832 
   15700   -143457.51   -143461.46    3.9522358    10.613653   -156472.13            0    975.58158    5.0968206   -33.404607   -30.547118    -30.17993   -36.779746    40.099586    40.099529    48.138425 
   15800    -143457.5   -143461.37    3.8695234    10.721611   -156479.73            0     979.6385    4.9901543    28.553954    20.812445    16.390691    50.994271    40.102635    40.104535    48.128177 
   15900   -143457.49   -143461.33    3.8354793    10.846424   -156501.87            0    989.41926    4.9462509    -4.277483   -4.5573291   -1.4535251   -4.3397374     40.10904    40.112676    48.125961 
   16000    -143457.5    -143461.5    3.9962495    10.573796    -156458.7            0    969.27944    5.1535808   -2.0192282   -7.1381051   -12.266001    16.005186    40.107872    40.108551    48.108868 
   16100   -143457.53   -143461.46    3.9256373    10.547409   -156496.39            0    986.81074     5.062519    14.277594    10.143672    12.948248    22.402706    40.112528    40.110966    48.119888 
   16200   -143457.56   -143461.45    3.8958944    10.604075   -156486.97            0    982.90548    5.0241625   -14.123416   -17.675256   -20.392732   -1.7572966    40.107542     40.10439      48.1287 
   16300   -143457.58   -143461.58    3.9950632    10.384633   -156468.91            0    974.26973     5.152051    14.376569    9.8908275    12.221781    23.359178    40.100237    40.097968     48.13443 
   16400    -143457.6   -143461.44    3.8348832     10.66372   -156501.03            0    988.66694    4.9454822   -11.987431   -13.778185   -14.460758    -5.413508    40.104942    40.102819    48.143526 
   16500    -143457.6   -143461.41    3.8013931    10.729327   -156467.78            0    973.76642    4.9022932    6.9165009    2.8543696    4.0440523    16.380859    40.102023    40.104226    48.124804 
   16600    -143457.6   -143461.49    3.8847747    10.626352   -156487.78            0    982.61176    5.0098225   -5.8937324   -6.5251173   -5.6767278    -2.979357    40.108112    40.111173    48.121768 
   16700    -143457.6   -143461.44    3.8329431    10.553535   -156489.91            0    983.91493    4.9429803   -2.3448303   -6.0333883   -4.7455418    6.1675368    40.111825    40.112929    48.115311 
   16800    -143457.6   -143461.49    3.8875459    10.604434   -156465.15            0     972.3074    5.0133962    2.3106908    4.0193234    6.3796306   -1.0838047    40.107087    40.105136    48.117037 
   16900   -143457.59   -143461.47    3.8770156    10.564967   -156506.05            0    991.72371    4.9998163   -12.652431   -15.011677   -15.751337   -4.7976023    40.108119    40.106789    48.135374 
   17000   -143457.59   -143461.55    3.9657211    10.495637   -156468.27            0    973.44643    5.1142113    7.7041572    10.160648    15.999918  -0.44842973    40.100939    40.098305    48.134818 
   17100   -143457.58   -143461.52    3.9378319    10.579189   -156477.27            0    977.46625    5.0782452    -6.094023   -8.3239104   -10.243923    2.7994475    40.101894    40.101652    48.135769 
   17200   -143457.58   -143461.44    3.8632439    10.660416   -156501.84            0    989.94334    4.9820563   -13.528261   -9.3049206  -0.17308518   -28.439449    40.108355    40.109768    48.128852 
   17300   -143457.56   -143461.48    3.9249994    10.612251   -156462.04            0    970.44352    5.0616964    26.454112    27.232313    22.579407    32.088353    40.106335     40.10703     48.11403 
   17400   -143457.52   -143461.41    3.8926025    10.630383   -156497.94            0    988.38133    5.0199172   -37.978347   -36.178162   -25.530572   -49.820838     40.11381    40.111533    48.118623 
   17500   -143457.47   -143461.34    3.8705487    10.756693   -156481.52            0    979.48468    4.9914766    42.307124    47.919175    43.741836     37.79819    40.108464    40.106488     48.12219 
   17600   -143457.44   -143461.38    3.9463139    10.674452   -156473.24            0    976.69394    5.0891837   -16.312704   -16.402942   -7.1163636   -22.724697    40.100046    40.100287    48.134972 
   17700   -143457.43   -143461.36    3.9354942    10.753471   -156499.32            0    988.18132    5.0752305   -8.7073581     1.229626   0.14560933   -24.920254    40.104141    40.103459    48.141899 
   17800   -143457.44   -143461.42    3.9797374    10.630914   -156464.94            0    971.84898    5.1322868    75.477394     73.20662    76.344305    79.469504    40.098559    40.100502    48.130286 
   17900   -143457.48   -143461.41    3.9245057    10.737961   -156495.37            0    988.19721    5.0610598   -96.905139   -83.891141    -76.71033   -127.48504    40.109189    40.110262    48.124376 
   18000   -143457.52   -143461.38    3.8546935    10.840762   -156489.64            0    982.62741    4.9710297    130.45252    124.99509    121.55519    147.33458    40.111684       40.111    48.114498 
   18100   -143457.55   -143461.48    3.9353366    10.664469   -156462.99            0    972.51976    5.0750273   -80.987287   -64.796094    -52.72503   -122.88108     40.10806    40.105121    48.115366 
   18200   -143457.57   -143461.52    3.9440885    10.520446   -156505.73            0    990.60851    5.0863137     35.78358    29.602789    19.843953    60.463558    40.110089    40.109251    48.130331 
   18300   -143457.59   -143461.45    3.8556276    10.626175   -156470.48            0    975.03978    4.9722342    35.200598    46.150379    61.147154    0.6824424    40.097825    40.097792    48.137462 
   18400   -143457.59    -143461.5    3.9028478    10.555428   -156480.17            0    979.50663    5.0331296   -52.912828   -53.698898   -63.359751   -39.322564     40.10094    40.102344    48.137981 
   18500    -143457.6   -143461.52    3.9220718    10.584052   -156499.05            0    987.98067     5.057921    47.818185    53.344013     61.94901     30.55388    40.105209     40.10638    48.133898 
   18600   -143457.61   -143461.47    3.8598609    10.667789   -156463.56            0    972.11363    4.9776935   -38.676415   -37.787863   -44.392417   -31.215817    40.105853    40.106555    48.116451 
   18700    -143457.6   -143461.49    3.8825582    10.581852   -156498.67            0    987.35655     5.006964    16.870551    17.886669     23.54282    11.750425    40.115975     40.11216    48.116775 
   18800   -143457.59   -143461.51     3.921408    10.516817    -156473.9            0    976.29261    5.0570649   -4.8798191   -1.7370623    -5.724625   -4.6646074    40.108736    40.106735    48.118449 
   18900   -143457.57   -143461.38    3.8107759    10.657004   -156476.68            0    977.68583    4.9143932   -20.195484   -21.210795   -19.728659   -16.994191    40.104187    40.104228    48.129084 
   19000   -143457.54   -143461.45    3.9014891    10.600862   -156503.82            0    990.52455    5.0313774    27.707139    32.861604    30.094548    22.727976    40.102089    40.104434    48.142669 
   19100   -143457.51   -143461.46    3.9482936    10.755078   -156458.29            0    969.10192    5.0917367   -48.056757   -49.784532   -51.579588   -40.326375    40.098195    40.100326    48.132528 
   19200   -143457.49   -143461.36    3.8603972    10.816719   -156498.33            0    987.63768    4.9783852    50.716243    57.272959    60.109732    37.269648    40.106854    40.108116    48.129658 
   19300   -143457.48   -143461.44    3.9677487    10.670002   -156483.76            0    981.25863     5.116826   -57.759011   -59.906597   -69.709697   -41.154125    40.110481    40.109387     48.12023 
   19400   -143457.47   -143461.46    3.9844847    10.646112   -156464.87            0    971.84459    5.1384089    24.783293    35.105181     43.31212   -1.3329425    40.111193    40.106035    48.110795 
   19500    -143457.5    -143461.3    3.8002415    10.788958   -156505.99            0    991.26104    4.9008081    40.942202    35.445139    15.934652    73.942729     40.11154    40.110183    48.126086 
   19600   -143457.54   -143461.39    3.8519164    10.652118   -156466.84            0    974.22549    4.9674483   -103.68851    -93.63801   -81.245555   -133.85412    40.101587     40.10204    48.130542 
   19700    -143457.6   -143461.47    3.8746033     10.59056   -156491.08            0     983.7254    4.9967054    153.44062    152.39093    127.33519    183.10972    40.099243    40.101941    48.138329 
   19800   -143457.62   -143461.48    3.8647138    10.564905    -156487.3            0    983.32192    4.9839518   -135.02568   -128.52739   -116.19362   -157.97755    40.103856    40.105187    48.137711 
   19900   -143457.62   -143461.48    3.8525659    10.668094   -156467.38            0    973.10626    4.9682858     107.4723    108.16843    87.214323    129.55014    40.103359      40.1041    48.119292 
   20000   -143457.62   -143461.51    3.8848893     10.70683   -156503.59            0    990.42045    5.0099702   -23.915021   -24.105911    -17.25357    -27.91084    40.114876    40.111482    48.121322 
   20100   -143457.62   -143461.48    3.8673108    10.579302   -156470.61            0    975.45324    4.9873009   -21.135756   -16.156721    -29.86407   -14.707959    40.110732    40.107775    48.111805 
   20200   -143457.61   -143461.41    3.8013918    10.666312   -156481.93            0    979.89043    4.9022915    66.159319    59.855788    58.822291    82.424542    40.105805    40.105482     48.12466 
   20300   -143457.59    -143461.5    3.9108098    10.586885   -156500.93            0    989.68916    5.0433975   -56.471695   -52.260506   -56.710445   -58.124278     40.10458    40.107282    48.137501 
   20400   -143457.56   -143461.53    3.9643439    10.546028   -156459.98            0    969.58924    5.1124353    45.188723    39.698981    35.430468    62.963257    40.097411    40.098444    48.132571 
   20500   -143457.55   -143461.37     3.811187    10.738593   -156496.44            0    986.73678    4.9149234    -26.12956   -24.355161   -22.123539   -29.432078    40.105757    40.106794    48.135515 
   20600   -143457.53   -143461.45    3.9141618    10.560428   -156483.68            0    981.35321    5.0477202    11.453294    5.7066844  -0.79939815    32.109853    40.109401     40.10675    48.120642 
   20700    -143457.5   -143461.45    3.9466714    10.592587   -156470.82            0    974.88616    5.0896448 -0.015309296  -0.64113509    4.4289112   -1.1151076    40.110588    40.106408    48.114738 
   20800   -143457.47   -143461.42    3.9504143    10.694856   -156502.57            0    990.07278    5.0944716   -17.153313   -24.043875   -30.155163    5.1215721    40.114045    40.112054    48.120513 
   20900   -143457.45   -143461.41    3.9596856    10.716587   -156463.78            0    971.25284    5.1064279    21.337343    19.144187    26.126761    21.214862    40.101349    40.103524    48.125676 
   21000   -143457.43   -143461.34    3.9061977    10.862338   -156491.85            0    985.08449    5.0374496   -32.031696   -37.213201   -44.898045   -11.310519    40.101558    40.104882    48.139336 
   21100   -143457.43   -143461.41    3.9799804    10.689394   -156486.71            0    981.96968    5.1326002    18.821168    14.495199    23.097766    21.557499    40.103187    40.103104    48.136172 
   21200   -143457.46   -143461.44    3.9829916    10.566765   -156464.11            0    971.78107    5.1364834   -11.921591   -16.742491   -21.997335    5.6992256    40.103089    40.102029    48.126041 
   21300   -143457.51   -143461.39    3.8838394    10.765459   -156507.88            0    992.88082    5.0086164   -18.378286   -23.977339   -16.571057   -12.024656    40.115681    40.110826    48.122013 
   21400   -143457.55   -143461.53    3.9780947     10.62515   -156467.66            0    972.81781    5.1301684    35.206651    34.208266    32.636003    41.196131    40.109267    40.106031    48.114942 
   21500   -143457.59   -143461.49    3.9034435     10.57637   -156480.65            0     980.0928    5.0338979   -52.393858   -60.009159   -57.197035   -37.608774    40.108194    40.107758    48.121929 
   21600    -143457.6   -143461.43    3.8236216    10.667352    -156498.2            0    986.94127    4.9309592    51.733243    54.921198    59.261485    43.593484    40.104551    40.107959    48.134275 
   21700   -143457.61   -143461.48    3.8703361    10.687684   -156462.67            0       971.87    4.9912024   -30.361781   -35.887719   -38.577814   -14.013229    40.097543    40.099305     48.13366 
   21800   -143457.62   -143461.53    3.9091142    10.616534   -156499.88            0    988.47221    5.0412108    4.0630374    10.014995    22.658839   -17.863383    40.106382    40.106597    48.134534 
   21900   -143457.62   -143461.52    3.8963826    10.599817   -156478.71            0    978.47288    5.0247921    50.965986    47.380985    36.734984    71.206932    40.106126    40.104299     48.12441 
   22000   -143457.62   -143461.48    3.8594062    10.559333   -156475.78            0     978.4673    4.9771072   -81.125794   -72.947597   -52.814732   -115.19152    40.110898     40.10742    48.116138 
   22100   -143457.59   -143461.53    3.9369096    10.554151   -156502.03            0    988.14303    5.0770559    128.80735    129.01446    112.33937    147.58676    40.113017     40.11001    48.121249 
   22200   -143457.56    -143461.4      3.83315    10.748668   -156459.66            0    971.21449     4.943247   -113.45886    -103.7349   -78.896779   -155.52559    40.101709    40.103555    48.124166 
   22300   -143457.53   -143461.38    3.8476298    10.760956   -156498.96            0    987.37943    4.9619203    92.363327    99.396857    76.934464    103.21471    40.103011    40.105782    48.136918 
   22400   -143457.51   -143461.36     3.849219    10.770043   -156487.92            0    983.57108    4.9639696     22.14413    32.040207    61.001362   -23.998796     40.10011    40.102316    48.138235 
   22500   -143457.49   -143461.36     3.871391    10.758225   -156461.07            0    971.84391    4.9925628    -185.7066   -172.69496   -193.57568   -188.31658    40.103182    40.103373    48.127261 
   22600   -143457.48   -143461.44    3.9546159    10.642262   -156512.26            0    991.33512      5.09989    361.78073    370.26423    387.12991    330.31316    40.111148    40.107251    48.125253 
   22700   -143457.49   -143461.35    3.8614343    10.789034   -156461.35            0     973.0323    4.9797226   -297.34603   -280.55867   -283.51605   -325.63503    40.111382    40.105955    48.117091 
   22800   -143457.51   -143461.44     3.921271    10.641033   -156486.65            0      980.876    5.0568882    136.82194    137.73808    135.03933     139.9441    40.109658    40.107002    48.120694 
   22900   -143457.57   -143461.41    3.8378069    10.665773   -156493.83            0    986.30617    4.9492526   -56.325145   -42.471546   -33.735381   -90.203595    40.103771    40.107661    48.134555 
   23000   -143457.62   -143461.44    3.8224946    10.705011   -156463.86            0    971.75772    4.9295058   -21.283455   -19.959905   -30.898191    -10.30973    40.098378    40.101975    48.131716 
   23100   -143457.64   -143461.51    3.8778842    10.509559    -156504.2            0    990.16857    5.0009365    57.383152    67.575924    81.959058    25.093723    40.103705     40.10606    48.138921 
   23200   -143457.64   -143461.52    3.8807142    10.591582   -156468.03            0    973.72006     5.004586   -96.524134   -95.183387   -111.46716   -80.495462    40.106484    40.104939     48.12433 
   23300   -143457.64   -143461.49    3.8513667    10.618453   -156480.58            0    978.90538    4.9667394    88.827573    96.373829    112.67483    59.867183    40.109827    40.105585     48.11874 
   23400   -143457.62   -143461.48     3.854884    10.656722   -156499.34            0    988.72907    4.9712753   -78.546577   -76.974078   -94.642985   -61.551425    40.114847    40.110175    48.122648 
   23500   -143457.61   -143461.39    3.7816359    10.707394      -156461            0    970.15552    4.8768142    34.748196    39.728996    52.630449    14.327413    40.103267    40.103879    48.120012 
   23600   -143457.58   -143461.37    3.7887586    10.679366   -156499.01            0    988.19198    4.8859997    10.562066    13.423278   -3.2731265    24.035202    40.102359    40.107317    48.137621 
   23700   -143457.55   -143461.48    3.9340018    10.596874   -156481.62            0    980.46226     5.073306   -68.831397   -66.003141   -55.086004   -82.715312    40.101144    40.105645    48.134652 
   23800   -143457.52   -143461.45    3.9317826    10.607259   -156471.18            0    974.25345    5.0704441    136.57065    140.49936    128.86905    143.12699     40.10084    40.101404    48.127978 
   23900   -143457.51   -143461.39    3.8831894    10.728992   -156498.37            0     989.1041     5.007778   -185.12482   -183.74908   -183.52036   -185.41753    40.112905    40.110593    48.127205 
   24000   -143457.51   -143461.39    3.8774745    10.720994   -156471.69            0    974.47263    5.0004081    207.52085    214.63137      212.909    197.84189    40.109185    40.102457    48.113575 
   24100   -143457.52   -143461.41    3.8862201    10.717332   -156489.19            0    984.60805    5.0116865   -99.198708   -104.88946   -123.48765   -66.379595    40.111862    40.108563    48.122145 
   24200   -143457.54   -143461.48    3.9373717    10.612683   -156488.84            0    984.06329    5.0776518   -24.952091   -14.192224   -0.1609701   -57.761397    40.105617     40.10744    48.127993 
   24300   -143457.58   -143461.48    3.8953787     10.66127   -156467.77            0     972.3512    5.0234975    153.58343    147.75384    117.72574    197.83098    40.096381    40.102175    48.130699 
   24400   -143457.64   -143461.53    3.8888063    10.534076   -156502.23            0    991.10229    5.0150217   -154.48961   -148.43541     -128.334   -184.19636    40.105265     40.10887    48.137992 
   24500   -143457.68   -143461.53    3.8554398    10.488407   -156471.07            0    974.15723    4.9719921    127.57601    123.99115    99.915545    161.32434    40.103576    40.102564    48.123631 
   24600   -143457.69   -143461.44    3.7529658    10.648161   -156480.38            0    980.05215    4.8398411   -77.094949   -74.034321   -58.188404   -96.614051     40.11096    40.105722    48.121964 
   24700   -143457.68   -143461.46    3.7846812     10.68534   -156501.53            0    989.49686    4.8807415    36.411129    33.743215    14.340283    63.575692    40.116364     40.10852    48.118844 
   24800   -143457.66   -143461.52    3.8612713    10.578458   -156460.98            0     969.9635    4.9795124    8.3890612    9.1768031      20.0037   -1.5413605    40.104876    40.103618    48.120059 
   24900   -143457.63   -143461.54    3.9080262    10.530204   -156496.46            0    987.36539    5.0398077   -55.958838   -57.269323   -71.226427   -36.860373    40.105021    40.109749    48.132165 
   25000    -143457.6   -143461.56    3.9585835    10.528382   -156480.03            0    978.16969    5.1050066    81.308955    79.149958    87.584482    79.692878    40.097954    40.104573    48.135695 
   25100   -143457.57   -143461.57      3.99594    10.456007   -156473.32            0    977.14948    5.1531817   -105.39285   -107.52974   -112.56661   -93.659279    40.101215     40.10414    48.131905 
   25200   -143457.55   -143461.44    3.8820543    10.698415    -156501.6            0    988.44404    5.0063142    80.212659    74.986358    74.594856    93.660064    40.110076    40.108657    48.127322 
   25300   -143457.54   -143461.45    3.9141102    10.676788   -156462.39            0    971.24286    5.0476537   -49.485615   -52.076398   -44.206518   -49.401771    40.109461    40.103028    48.117345 
   25400   -143457.53   -143461.44    3.9098152     10.69889   -156495.42            0    986.99452    5.0421148   -47.607277   -59.384392   -72.991932    -7.978285    40.115331    40.109876    48.118538 
   25500   -143457.53   -143461.38    3.8502984    10.775809   -156485.01            0    979.65102    4.9653616    146.74875    145.41406    171.52906    125.90932    40.106215    40.105314    48.127037 
   25600   -143457.54   -143461.49    3.9483614    10.608777   -156461.58            0    973.07373    5.0918242   -258.26127   -274.26064   -303.12658   -194.80178    40.099558       40.105    48.130386 
   25700   -143457.56   -143461.48    3.9161498    10.514616   -156510.58            0    990.95816     5.050284    270.69898    266.87315    310.68715    237.03194    40.102735    40.105231    48.140232 
   25800   -143457.61   -143461.38    3.7679525    10.662673   -156466.02            0    974.69767    4.8591681   -170.59632   -185.96802   -217.18594   -105.98039    40.102302    40.103635    48.128138 
   25900   -143457.66   -143461.52    3.8610847    10.570529    -156483.8            0    980.55221    4.9792717    39.275672     35.86936    68.070007    16.566773    40.110181    40.105789    48.121815 
   26000   -143457.68   -143461.59    3.9102796     10.44759   -156496.06            0     986.3873    5.0427137    37.829625    28.980521    15.605236    71.566361    40.113951    40.108771    48.119968 
   26100   -143457.68   -143461.47    3.7835241    10.608646   -156463.83            0    972.40989    4.8792493   -54.458777   -59.123201   -42.781259   -59.077403    40.107908    40.105341    48.115862 
   26200   -143457.67   -143461.54    3.8722882    10.586512   -156500.84            0    988.26494    4.9937199    71.119957    66.660548    64.077628    85.042688    40.105562    40.108946    48.131647 
   26300   -143457.65    -143461.5    3.8463889    10.598068    -156474.9            0    977.76151      4.96032   -53.592142   -56.803166   -47.908986   -53.430327    40.097758    40.104665    48.134113 
   26400   -143457.63   -143461.46    3.8277396    10.706704   -156480.12            0    979.06249    4.9362698    42.313797    39.388229    44.896831    45.371377    40.101135    40.103641    48.132626 
   26500    -143457.6   -143461.56    3.9567807     10.55779   -156499.99            0    988.88765    5.1026817  -0.76115205   -2.7447157   -1.4524034    4.6571161    40.107756    40.107331    48.131219 
   26600   -143457.59   -143461.46      3.87075    10.603171   -156459.77            0    969.81613    4.9917362   -33.124275   -33.785325   -18.548548   -44.476535    40.109467    40.103178    48.115474 
   26700   -143457.57   -143461.44    3.8701037     10.73238    -156499.2            0    987.69296    4.9909027    90.601459    88.957558    79.294844     105.8141    40.113868    40.107986    48.120686 
   26800   -143457.57   -143461.43    3.8608354    10.690153   -156481.81            0    981.49881    4.9789503   -149.35309   -145.50972   -114.96024   -185.10728    40.109573    40.107042    48.124335 
   26900   -143457.57   -143461.48    3.9167588    10.636502   -156471.44            0    973.64419    5.0510693    186.39839    184.89878    160.08408    216.81518    40.098349     40.10359    48.128017 
   27000   -143457.57   -143461.42    3.8553727    10.729332   -156501.23            0    990.48958    4.9719055   -152.10253   -144.56739   -98.393509   -211.02812    40.102269     40.10777    48.142925 
   27100   -143457.57   -143461.46    3.8876295    10.668606    -156466.5            0    972.36771    5.0135041    14.991338    14.465618   -15.537724    48.519768    40.100655    40.103791    48.128274 
   27200   -143457.57   -143461.45    3.8739988    10.584077   -156488.79            0    982.50871    4.9959258    98.001157    109.03979    147.57476    39.943234    40.107719    40.104006    48.127731 
   27300   -143457.58   -143461.52     3.935805    10.588024   -156485.72            0    982.91768    5.0756314   -198.04821   -195.93526   -216.91314   -178.78032    40.115835    40.109074    48.120023 
   27400   -143457.59   -143461.55    3.9563445    10.509851   -156470.49            0     973.4113    5.1021191    196.21533    205.75928    226.32338    159.08859    40.108751    40.101438    48.116388 
   27500   -143457.63    -143461.4    3.7721167    10.720536   -156499.71            0    989.67946    4.8645383   -172.01983   -165.65963   -171.18172   -176.73227    40.109838    40.110597    48.130893 
   27600   -143457.66   -143461.49    3.8279385    10.574227   -156471.38            0    974.27636    4.9365262    88.577617    97.465762    100.16618    70.416008     40.09832    40.103413    48.131291 
   27700   -143457.68   -143461.46     3.786332    10.631147      -156480            0    979.24028    4.8828703   -13.536981   -6.9074139   0.41634557   -31.711239    40.098964    40.103807    48.137051 
   27800   -143457.69   -143461.47    3.7792026    10.684375   -156497.54            0    987.83391    4.8736762   -68.431314   -59.019708   -72.310577   -71.498822    40.107224    40.108175    48.132893 
   27900   -143457.67   -143461.59    3.9190807    10.442029   -156464.13            0    971.01177    5.0540636    124.60915     131.4939    147.79006    96.972107    40.105406    40.100782    48.119629 
   28000   -143457.65   -143461.53    3.8783805    10.645416   -156495.93            0    987.78845    5.0015765   -143.29177   -137.38448   -163.32541   -126.52023    40.116507    40.109561    48.120852 
   28100   -143457.61   -143461.42    3.8111326     10.76131   -156484.78            0    980.82528    4.9148533    136.39219    143.87873    165.67568    102.29687    40.110091    40.104746    48.119558 
   28200   -143457.57   -143461.43    3.8653884    10.704733   -156469.76            0    975.10359    4.9848218   -77.745175   -74.992753   -107.44718    -48.19997    40.101376    40.105312    48.128372 
   28300   -143457.54   -143461.41    3.8628734    10.812888   -156500.92            0    989.04912    4.9815784     15.25039    22.777827    45.287325   -19.744006    40.102441    40.107538    48.138123 
   28400   -143457.53   -143461.47    3.9354157    10.634391      -156467            0    972.57596    5.0751293    89.414627    88.970189    56.622287    125.17016    40.097022    40.101905    48.131382 
   28500   -143457.54   -143461.54    4.0036275    10.457646   -156490.52            0    986.43659    5.1630955   -215.73945   -205.03049   -184.89764   -254.67874    40.108593     40.10801    48.129588 
   28600   -143457.55    -143461.5    3.9590017    10.545867   -156494.51            0     982.8405     5.105546    409.38235    402.98457     365.9679    461.74023    40.109198    40.105591    48.118201 
   28700   -143457.56   -143461.41    3.8511953     10.73454   -156459.13            0    972.94573    4.9665183   -389.59848   -378.80658   -373.89722   -413.65621    40.112053    40.105144    48.117843 
   28800   -143457.57   -143461.34    3.7673574    10.845056   -156508.75            0    991.41991    4.8584006    186.56067    182.80726    171.50953    207.92539    40.111984      40.1091    48.124129 
   28900   -143457.58   -143461.44    3.8597029    10.660275   -156466.38            0    972.58255    4.9774898  -0.51907057    3.9263602   -12.827402    9.8018493    40.099927    40.102496    48.130531 
   29000   -143457.61   -143461.43    3.8150368    10.654573   -156482.68            0    981.57597    4.9198882   -91.816464   -95.279919   -86.020465   -91.748716    40.100877    40.105634    48.134779 
   29100   -143457.65   -143461.43    3.7850021    10.669194   -156498.98            0    986.87659    4.8811553    122.46351    124.28446    100.67513    144.54664    40.103851     40.10642    48.135003 
   29200   -143457.68   -143461.46    3.7839276    10.656053   -156462.31            0    972.34999    4.8797696   -129.67877    -131.6525   -115.72694   -139.24603     40.10493    40.104981    48.120891 
   29300   -143457.72   -143461.51    3.7935234    10.567883   -156500.25            0    987.57461    4.8921444    91.816335    89.237829    63.663106    125.32212     40.11398    40.109685    48.120529 
   29400   -143457.74    -143461.6    3.8575298    10.574679   -156474.07            0    976.57019    4.9746873   -54.614278   -53.160332   -36.529767   -71.626201    40.110744    40.105999    48.118779 
   29500   -143457.74   -143461.57    3.8245722    10.563802   -156477.55            0    978.22962    4.9321851   -9.3263954   -14.610734   -38.269827     27.35635    40.106825    40.105251    48.123736 
   29600   -143457.71   -143461.45    3.7370761    10.724789   -156499.44            0    987.48044    4.8193497    54.348684    57.151874    73.390641    34.950939    40.103653    40.105217    48.139072 
   29700   -143457.64    -143461.5    3.8617624     10.56555   -156462.16            0    972.10959    4.9801457   -108.32503   -115.25029   -134.35662   -72.854939    40.098435    40.102049    48.131501 
   29800    -143457.6   -143461.45    3.8510939    10.707971   -156498.86            0    986.61515    4.9663875    142.87655     149.3794    158.30745    123.43994    40.105213    40.107219    48.131883 
   29900   -143457.58   -143461.47    3.8920078    10.665397   -156480.55            0    981.05073    5.0191503   -167.07965   -178.64621   -192.12435   -127.92813    40.108722    40.109857    48.121675 
   30000   -143457.57   -143461.54    3.9736721    10.585987   -156468.94            0    972.83778    5.1244649     118.8621    127.08155    124.23219    107.80773    40.110273    40.104884    48.113165 
   30100   -143457.56   -143461.48    3.9176365    10.677217   -156505.68            0    990.94591    5.0522011     55.21848     46.95312    51.195228    70.373685    40.112991    40.108905    48.125242 
   30200   -143457.54   -143461.46    3.9168306    10.684411   -156464.55            0    974.31502    5.0511619   -210.57264   -206.60381    -228.9774   -193.41308    40.104172    40.103185    48.126749 
   30300   -143457.54   -143461.48    3.9428364     10.62032   -156492.02            0    982.63029    5.0846991    283.05389    277.73151    304.55909    269.53919    40.099737      40.1017    48.136509 
   30400   -143457.54   -143461.38    3.8319284    10.810901   -156488.23            0    985.29287    4.9416717   -216.57545   -216.35089   -244.02798   -186.86091    40.104166    40.106501    48.136103 
   30500   -143457.55   -143461.44    3.8940852     10.68687   -156467.99            0    972.42979    5.0218293    144.35305    142.01786    170.56799    122.80765    40.102269    40.103628    48.122558 
   30600   -143457.57   -143461.41    3.8392745    10.730613   -156501.04            0    989.75656    4.9511452   -43.515231   -49.055618   -72.861147   -6.1197721    40.112222    40.110675    48.123718 
   30700   -143457.59   -143461.39    3.7975442    10.748985   -156470.23            0    974.90783    4.8973296   -29.149737   -27.117384  -0.35850816   -57.350861     40.11109    40.105703    48.115363 
   30800   -143457.61    -143461.5    3.8839306    10.618399   -156484.99            0    981.19799     5.008734    104.82395    95.723766    80.086813    141.18767     40.10797    40.103788    48.123913 
   30900   -143457.64   -143461.46    3.8205079    10.593197   -156495.84            0    987.91518    4.9269437   -143.78923   -138.83706   -115.86198   -174.04319    40.106787    40.107084    48.135109 
   31000   -143457.66   -143461.54    3.8803834    10.559794   -156463.27            0    970.06147    5.0041595    152.56969    141.13345    134.09094    185.00463     40.09694    40.099063    48.131749 
   31100   -143457.66   -143461.52    3.8542762    10.664813   -156496.87            0    988.08482    4.9704915   -120.61889   -111.55058    -100.7344   -147.24143    40.104366    40.108298    48.136683 
   31200   -143457.66   -143461.53    3.8713423    10.612437   -156480.67            0    978.95695       4.9925    43.438019    30.908809    35.521837    66.437292    40.105575     40.10795    48.123341 
   31300   -143457.64   -143461.49    3.8532155    10.627666   -156473.38            0    975.99458    4.9691236     45.16763     54.77445    54.633227    28.431749    40.108035    40.105823    48.117559 
   31400   -143457.59   -143461.47    3.8850211    10.634359   -156498.39            0     988.8982    5.0101402     -173.267   -179.22621   -160.72656   -177.37603     40.11697    40.111211    48.121443 
   31500   -143457.54   -143461.41    3.8747905    10.656925   -156471.38            0    972.81869    4.9969468    299.33828    307.47573    290.00645    302.92979    40.104333    40.100707     48.12104 
   31600   -143457.51   -143461.34    3.8297912    10.875378   -156482.66            0    983.87924    4.9389155   -448.12212   -444.20461   -398.70976   -498.98541    40.106182    40.106796    48.138681 
   31700    -143457.5   -143461.46    3.9581905    10.739658   -156491.66            0    981.28676    5.1044998    360.80192    367.20653    325.40306    392.44173    40.100161     40.10208    48.134962 
   31800   -143457.52   -143461.41    3.8863873    10.667015   -156465.34            0    973.39005    5.0119021   -114.03098   -99.417286   -53.512552    -186.5275    40.099279     40.10315    48.132039 
   31900   -143457.53   -143461.36    3.8325541    10.748023   -156503.09            0    990.73452    4.9424785   -80.768493    -80.68431   -108.99996   -50.060031    40.111013    40.111994      48.1267 
   32000   -143457.55   -143461.43    3.8860826    10.710146   -156469.85            0    973.40286    5.0115091    150.66795    168.07527    193.98956    92.502813    40.107036    40.104183    48.116463 
   32100   -143457.58   -143461.46    3.8739341    10.645487   -156480.52            0    980.82778    4.9958423   -175.32793   -176.55614   -193.38851   -153.49475    40.113279     40.10854     48.11886 
   32200   -143457.61   -143461.49    3.8783523      10.6723      -156500            0    987.28216    5.0015402     165.0783    184.01675    198.05811    115.53946    40.107735    40.106145    48.129124 
   32300   -143457.63   -143461.57    3.9440275    10.555009   -156459.08            0    970.30582    5.0862351   -108.53718   -109.31714   -117.99933   -95.847376    40.099586    40.099776    48.132242 
   32400   -143457.64    -143461.5    3.8544337     10.68181   -156501.96            0    989.41353    4.9706946    40.986573    61.895274    60.297684    3.3153305    40.103298    40.105783    48.138577 
   32500   -143457.64   -143461.55    3.9117243    10.535203   -156477.97            0    977.99192    5.0445768    54.494686    53.344344    54.109664    58.547791    40.100817     40.10349    48.131493 
   32600   -143457.63   -143461.49     3.858721    10.672797   -156475.48            0    978.56755    4.9762235   -122.23172   -103.84672    -118.3654   -142.07466    40.107297    40.107709    48.121175 
   32700   -143457.62   -143461.44    3.8180238    10.632293   -156501.81            0    987.71015    4.9237402    193.22247    195.30914    204.43712    182.39219    40.112764     40.10864    48.120943 
   32800    -143457.6   -143461.47    3.8622703     10.62297   -156458.84            0    971.26555    4.9808007   -213.27154   -203.01232   -230.16896   -204.22461    40.108065     40.10583    48.117067 
   32900   -143457.59   -143461.43    3.8306409    10.675118   -156502.21            0    988.29987    4.9400113    195.68604    204.45667    226.62287     158.4724     40.10669    40.106047    48.130228 
   33000   -143457.59   -143461.48    3.8849202    10.644649   -156480.81            0    980.04186    5.0100101   -61.132393   -60.195454   -104.57713   -16.027137    40.101523    40.103915    48.135515 
   33100   -143457.59   -143461.48    3.8906647    10.655801   -156467.19            0    974.97626    5.0174183   -155.46837   -138.03319   -111.02665   -214.73871    40.100325    40.102617    48.132188 
   33200   -143457.58   -143461.46    3.8834967    10.653676   -156510.06            0    990.30685    5.0081744    307.27121    293.72042    254.38711    376.09279    40.106472    40.108438    48.131037 
   33300   -143457.57   -143461.44    3.8684475    10.666371   -156460.01            0    972.42525    4.9887668   -285.90904   -268.15688   -254.48977   -332.49659    40.107954    40.106247     48.11924 
   33400   -143457.57   -143461.48    3.9067621    10.632987   -156489.39            0     981.9404    5.0381776     164.6625    150.68487     131.9383     214.1291    40.111954    40.107733    48.117656 
   33500   -143457.56   -143461.42    3.8615626    10.660764   -156490.52            0    984.89695     4.979888   -88.232727   -78.192741   -77.566573   -106.43267    40.109131    40.108961    48.126057 
   33600   -143457.55   -143461.44    3.8874568    10.718373    -156466.8            0    973.21769    5.0132813    11.021592   -1.8430206   -9.5881678    46.993187    40.101705    40.102762    48.126427 
   33700   -143457.55   -143461.47    3.9217629    10.696415   -156501.44            0    988.57586    5.0575226    45.120091    52.235339    44.800335    40.748267    40.103027    40.106536      48.1394 
   33800   -143457.56   -143461.44    3.8812193     10.72868   -156468.88            0    974.97118    5.0052374   -105.36518    -118.2345   -117.14216   -78.165405    40.102346    40.104051    48.128906 
   33900   -143457.57   -143461.44    3.8776149    10.737592   -156484.27            0    979.86752    5.0005892    130.07552    132.88998    118.37101    141.53389    40.105999    40.105935    48.125205 
   34000   -143457.58   -143461.51    3.9235852    10.584893   -156493.82            0    986.88746    5.0598726   -136.76139   -146.68373   -136.43264   -124.53806     40.11434    40.109672    48.121683 
   34100   -143457.61   -143461.48    3.8712133    10.547127   -156464.17            0    970.94733    4.9923336    98.240378    93.070319    71.748701    132.50523    40.108422    40.105075    48.112712 
   34200   -143457.64   -143461.51    3.8669381    10.539304   -156500.92            0    989.29685    4.9868203    -8.361088   -9.4749079    12.266005    -25.21525    40.108881    40.108912     48.12905 
   34300   -143457.66    -143461.5     3.841628    10.636299   -156476.35            0    978.86342    4.9541802   -147.74656     -164.187   -194.23117   -82.214181    40.103158    40.106237    48.130063 
   34400   -143457.66   -143461.53    3.8689247    10.608793   -156477.39            0    975.01427    4.9893823    351.95334    360.69176      391.826    305.99754    40.097259     40.09899    48.133586 
   34500   -143457.65   -143461.58     3.929714    10.571545   -156494.69            0    989.96402    5.0677764   -429.40246   -460.47381   -483.87292   -341.25209    40.108651    40.110579    48.134802 
   34600   -143457.63   -143461.53    3.9024292    10.541091    -156471.7            0    972.61831    5.0325898     339.8985    356.20451    378.14173    288.07567    40.103758    40.101274    48.119995 
   34700   -143457.58   -143461.44    3.8524641    10.778397   -156491.06            0    985.87925    4.9681546   -114.36203   -139.48827   -144.60004   -56.478236     40.11384    40.109328    48.119325 
   34800   -143457.53   -143461.43    3.8986364     10.72599   -156486.46            0    982.27025    5.0276986   -1.0977491    7.8513493    13.892087   -22.504833    40.111398    40.108879    48.118989 
   34900   -143457.51    -143461.4    3.8875996    10.760513   -156470.05            0    974.43306    5.0134655    67.112557    55.120754    60.154987    88.607561    40.102235    40.103728    48.124518 
   35000   -143457.51   -143461.36    3.8413756    10.838735   -156500.56            0     989.5813    4.9538548   -98.016273   -92.311734   -91.939351   -107.39655    40.105352    40.108301    48.137378 
   35100   -143457.52   -143461.48     3.961699     10.57725   -156469.49            0    973.41684    5.1090244    116.56008    106.96972    118.15384     127.0673    40.098903    40.100103    48.132111 
   35200   -143457.54   -143461.46    3.9236539    10.717815   -156484.67            0    982.52327    5.0599613   -101.84597   -99.917817   -104.36259   -98.644711    40.105408    40.105971    48.130553 
   35300   -143457.56   -143461.54    3.9854969     10.60773    -156496.8            0    986.57365    5.1397143    60.384126    53.834963    73.628398    56.333676    40.112338    40.107122    48.123673 
   35400   -143457.58   -143461.53    3.9494366    10.528712    -156462.9            0    971.32502    5.0932107    10.002584     4.662756   -2.8981056    30.709206     40.10829    40.103898    48.115132 
   35500    -143457.6   -143461.39    3.7894373    10.754871   -156497.21            0    988.00109     4.886875   -123.94764   -121.03444   -91.020963   -157.42495    40.113171    40.110799    48.124453 
   35600   -143457.62   -143461.48    3.8656343    10.666368   -156481.12            0    977.71257    4.9851389    243.31424    226.53396    216.59558     289.1264    40.101453    40.103985    48.127397 
   35700   -143457.64   -143461.45    3.8078187    10.646437   -156469.46            0    976.99537    4.9105797   -339.16306   -324.62748   -290.11519   -400.26676     40.10235    40.103319    48.136666 
   35800   -143457.65   -143461.43     3.778598    10.701395   -156504.64            0     988.1719    4.8728965    297.40431    269.22145    265.79722    359.59168    40.103135    40.104994    48.135499 
   35900   -143457.64   -143461.56     3.923152    10.569799   -156462.56            0    972.39145    5.0593139   -160.11493   -136.57219   -112.97291   -228.31837    40.103069    40.102204    48.128302 
   36000   -143457.61   -143461.48     3.870175     10.65752   -156494.17            0    986.06055    4.9909947   -34.737191    -61.86537   -53.889885     14.22886    40.113676    40.109703    48.120386 
   36100   -143457.55   -143461.39     3.838384    10.706327   -156483.91            0    979.69188    4.9499968    138.68631    156.54681    166.72013    95.315541    40.110693    40.106244    48.118605 
   36200    -143457.5   -143461.43     3.926073    10.722759   -156466.97            0    974.28777     5.063081   -139.23353   -149.95693   -137.37831    -127.7793    40.107844    40.106483    48.119533 
   36300   -143457.49   -143461.32    3.8303098    10.836903   -156506.13            0    990.78226    4.9395842     104.2085    112.18458     112.8275    90.263594    40.105716    40.106281    48.136222 
   36400   -143457.48   -143461.46    3.9806262    10.601804   -156464.57            0    972.70067    5.1334329   -73.697264   -76.917766   -65.130663   -76.604074    40.098282    40.101148    48.134043 
   36500    -143457.5    -143461.4    3.9025974    10.708228   -156488.53            0    983.13611    5.0328068    38.396593    43.224128    39.853169    34.427331    40.101565     40.10528    48.134507 
   36600   -143457.53   -143461.33    3.7996713    10.882178    -156492.2            0    984.77771    4.9000728    12.449982    16.193841    27.968895   -4.3624482     40.10651    40.107819    48.129223 
   36700   -143457.55   -143461.41     3.859355    10.744958   -156464.14            0     972.5418    4.9770411    -57.73582   -56.418462   -62.828842   -51.357852    40.109207    40.106302    48.113624 
   36800   -143457.59   -143461.41    3.8194108    10.754634   -156501.85            0    988.49436    4.9255289    112.09584    125.50903    137.12211    76.384144    40.113745    40.109208     48.12099 
   36900   -143457.61    -143461.5    3.8864235    10.610725   -156471.65            0    976.81336    5.0119487   -141.15561   -144.84624    -155.0825   -120.86226    40.107053    40.105474    48.123108 
   37000   -143457.62   -143461.47    3.8437198    10.630738      -156485            0    980.66856    4.9568779    151.16886    175.66721    184.97809    95.451888    40.102073    40.100814    48.133836 
   37100   -143457.63   -143461.41    3.7787464    10.709144   -156493.94            0    986.35108    4.8730879   -80.523037   -89.963913   -102.12349   -46.962907    40.102094    40.105426    48.140541 
   37200   -143457.63   -143461.46    3.8334815    10.699249    -156462.8            0    971.89176    4.9436745   -51.458487    -15.16341   -16.612928   -120.17001     40.09947    40.102123    48.129202 
   37300   -143457.62   -143461.45    3.8294216     10.68464   -156502.16            0    987.62182    4.9384389    210.55341     197.1729    189.67275    247.28826    40.107474    40.109452    48.126334 
   37400    -143457.6   -143461.49    3.8862653    10.606389   -156474.78            0    979.61948    5.0117447   -307.15798   -273.15092   -283.66799   -361.84605    40.112738    40.109021    48.118147 
   37500   -143457.57   -143461.45    3.8744244    10.780137   -156477.24            0    975.42375    4.9964747    294.92396    290.15194    288.98563    308.31763     40.10818    40.104152    48.115873 
   37600   -143457.52   -143461.44    3.9122096    10.723803   -156498.76            0    989.85808    5.0452027   -209.75561   -189.24548   -211.91267    -225.5947    40.111151    40.107426    48.132773 
   37700   -143457.48   -143461.45    3.9650725    10.672372   -156466.91            0    972.46106    5.1133749    68.875245     71.41855    74.522315    63.502894    40.100725    40.099846    48.130667 
   37800   -143457.47   -143461.46     3.991498    10.604205    -156489.2            0    982.80733    5.1474533    54.247683    62.822416    36.057091    66.519817    40.100236    40.104992    48.137783 
   37900   -143457.47   -143461.39    3.9222454    10.767057   -156485.25            0     983.0805    5.0581449    -166.8097   -156.13324   -156.10122   -185.82063    40.104212    40.109947    48.130221 
   38000   -143457.48   -143461.39     3.911746    10.805249   -156472.46            0    973.93022    5.0446048    210.71074    205.22292     182.8656    246.61213    40.104135    40.106197    48.118042 
   38100   -143457.51   -143461.46     3.955478    10.679133   -156497.69            0    989.43816    5.1010018   -211.59745   -193.25981   -196.18779   -242.93337    40.115318    40.112622    48.120715 
   38200   -143457.53   -143461.49    3.9528336    10.627658    -156471.3            0    973.71262    5.0975915    144.99721    129.41782    108.75281    199.28145    40.108203     40.10379    48.117686 
   38300   -143457.57   -143461.42    3.8577119    10.710402   -156483.78            0    981.53334    4.9749221   -48.489405   -27.609244   -33.811602   -81.440426      40.1065    40.102834    48.131557 
   38400   -143457.58   -143461.46    3.8751817    10.642374   -156492.82            0    985.61365    4.9974513   -68.092835   -89.052096   -104.26998    -8.575373    40.105664    40.105557    48.135482 
   38500    -143457.6   -143461.48    3.8721773    10.653097   -156465.94            0     971.3684    4.9935768    167.50491    187.48228    176.11228    141.44448    40.096493    40.101007    48.130487 
   38600   -143457.63   -143461.43    3.8081807    10.686746   -156496.91            0    989.24291    4.9110465   -219.91102   -241.79131   -249.34812   -166.08168     40.10765     40.11264     48.12946 
   38700   -143457.63   -143461.49    3.8537778    10.640159   -156482.05            0    978.39946    4.9698487    222.23428    235.74302    224.49056    208.92903    40.107082    40.106422    48.118587 
   38800   -143457.62   -143461.52    3.8977099    10.640218   -156472.55            0     977.2885    5.0265037   -152.19903   -166.23472   -169.05364    -118.7577    40.110152    40.108037    48.117036 
   38900   -143457.61    -143461.5    3.8810185    10.619203   -156499.88            0    987.90284    5.0049784    49.723183    52.051417    35.448045    64.178984    40.112731    40.107112    48.125799 
   39000   -143457.59   -143461.46    3.8696386    10.594343   -156468.46            0    973.07794    4.9903028    134.14668    129.66597     135.5128    139.61251     40.10208    40.098911    48.127901 
   39100   -143457.54   -143461.42    3.8861831    10.828722   -156487.85            0    986.03923    5.0116388   -352.36224    -362.6435   -387.35198   -304.59676    40.107041    40.106698    48.136267 
   39200   -143457.49   -143461.37    3.8802258    10.822155   -156492.53            0    981.23583    5.0039562    484.42084    494.69185    502.03303    459.17263      40.0987    40.104176     48.12982 
   39300   -143457.47   -143461.43    3.9635159     10.71206   -156464.13            0     975.3451    5.1113674   -379.77511   -406.07994   -419.02223   -311.55568    40.105372    40.109633    48.122422 
   39400   -143457.47   -143461.47    3.9953508    10.676092   -156505.76            0    989.64484    5.1524219    184.54579    204.46104    207.21186    144.61004    40.111526    40.111882    48.120857 
   39500   -143457.49   -143461.36    3.8643845     10.75917   -156464.51            0    972.26471    4.9835272   -27.219141   -50.929351     -53.5932    25.438374    40.107817    40.104383    48.117718 
   39600   -143457.51   -143461.43    3.9230569    10.738786   -156487.12            0     983.1464    5.0591913   -70.636927   -53.704568   -50.586433     -105.222    40.110126    40.104182    48.128335 
   39700   -143457.53    -143461.4    3.8727094    10.798012   -156495.68            0    985.72299    4.9942631    120.66731    101.60957    105.77418    157.11674    40.105666     40.10132    48.136226 
   39800   -143457.55   -143461.42    3.8711081    10.674811   -156461.62            0    971.85471    4.9921979   -138.31183   -123.78288   -123.19227   -165.33725    40.100403    40.101871    48.130828 
   39900   -143457.57   -143461.46    3.8943913    10.646206   -156502.85            0     988.8828    5.0222241    116.36568    102.92894    110.60748    138.10222    40.104537    40.109403    48.132263 
   40000   -143457.59   -143461.41    3.8239743    10.736083   -156471.33            0    975.71691     4.931414   -77.782576   -67.857486   -66.493225   -96.421448    40.105514    40.108444    48.120975 
Loop time of 70876 on 8 procs for 30000 steps with 12000 atoms

Performance: 0.015 ns/day, 1640.649 hours/ns, 0.423 timesteps/s
20.2% CPU use with 8 MPI tasks x no OpenMP threads

MPI task timing breakdown:
Section |  min time  |  avg time  |  max time  |%varavg| %total
---------------------------------------------------------------
Pair    | 60500      | 61282      | 62595      | 262.8 | 86.46
Bond    | 4.6181     | 4.9734     | 5.3005     |  10.2 |  0.01
Neigh   | 0          | 0          | 0          |   0.0 |  0.00
Comm    | 8144.3     | 9457.3     | 10240      | 669.3 | 13.34
Output  | 1.9818     | 1.9973     | 2.0374     |   1.2 |  0.00
Modify  | 108.95     | 109.93     | 110.79     |   6.1 |  0.16
Other   |            | 19.79      |            |       |  0.03

Nlocal:    1500 ave 1500 max 1500 min
Histogram: 8 0 0 0 0 0 0 0 0 0
Nghost:    24374 ave 24374 max 24374 min
Histogram: 8 0 0 0 0 0 0 0 0 0
Neighs:    2.17618e+06 ave 2.1796e+06 max 2.17241e+06 min
Histogram: 1 2 0 0 1 1 0 0 1 2

Total # of neighbors = 17409408
Ave neighs/atom = 1450.78
Ave special neighs/atom = 1
Neighbor list builds = 0
Dangerous builds = 0
unfix NPT
variable STEP equal step
velocity all scale 30 temp CSequ
fix NPT all npt temp 30 30 0.100000 tri 1. 1. 0.100000
fix_modify NPT temp CSequ
run 10000
Memory usage per processor = 21.0002 Mbytes
Step TotEng PotEng KinEng Fnorm E_coul E_long E_bond Temp Press Pxx Pyy Pzz Lx Ly Lz 
   40000   -143438.15   -143461.41    23.262948    10.736083   -156471.33            0    975.71691           30    190.45407    199.54587    200.61911     186.9393    40.105514    40.108444    48.120975 
   40100   -143437.62    -143452.4    14.783771    19.622596   -156456.02            0    971.75515    19.065215    155.13372    166.51427    151.49778    157.47162    40.114701    40.109268    48.107941 
   40200   -143436.84    -143449.4    12.560118    21.682593   -156512.38            0    999.75262    16.197583    73.604089    86.183888    87.468869    55.400042    40.120686    40.114421    48.128878 
   40300   -143435.86   -143451.55    15.685166    20.313764   -156441.65            0    967.87983    20.227659     5.574481    6.0055463    23.360146   -3.5689507    40.104579    40.101916    48.122058 
   40400   -143434.85    -143448.6    13.752397    21.910049   -156488.04            0    990.91089    17.735151   -80.667178   -43.835802   -82.532157   -105.18543    40.103939    40.105686    48.149609 
   40500   -143433.77   -143449.94    16.162202    20.849461   -156486.25            0    989.95546    20.842846   -137.62658   -146.50082   -156.76257   -100.50693    40.102595    40.110414    48.146343 
   40600   -143432.59   -143449.52    16.925863    21.090093   -156427.98            0    963.76687    21.827668    -219.7729   -192.24612   -216.81836   -238.27777    40.099046    40.103123    48.130665 
   40700    -143431.4   -143448.56    17.164109    22.037726   -156505.41            0    1000.2839    22.134911   -305.19727   -317.11505   -341.80247   -245.87138    40.120692    40.120711    48.131055 
   40800   -143430.14   -143447.55    17.408163    22.373071   -156442.85            0    972.61879    22.449643   -369.53948   -367.45349   -364.33902   -366.15197    40.119832    40.111977     48.11015 
   40900   -143428.86   -143445.91    17.052658    23.505691   -156450.89            0    977.29581    21.991183   -416.03399   -430.42512   -388.38386   -417.56496    40.112455    40.112654    48.125684 
   41000   -143427.57   -143446.14    18.570048    23.341308   -156498.74            0    999.69672    23.948015   -405.89338    -370.0949   -388.14208   -449.28916    40.115741    40.116713    48.142083 
   41100    -143426.3   -143444.88    18.586396     24.01586   -156425.37            0    966.00358    23.969098    -307.9658   -320.68656    -313.3152   -278.60582     40.09687    40.103021    48.138224 
   41200   -143425.02   -143444.86    19.834314    24.221081   -156494.94            0    996.39233    25.578418   -123.33743   -88.911749    -86.26266   -184.42516    40.105609    40.110846    48.153055 
   41300   -143423.78   -143445.12     21.33996    23.967565   -156471.49            0    984.18952    27.520106    103.62521    91.946834    70.821305    157.62143    40.108665    40.112059    48.128033 
   41400   -143422.59   -143443.17    20.581219    24.874778   -156447.16            0    971.68678     26.54163    314.05988    325.95651    320.41019    308.29181    40.111937    40.106472    48.114685 
   41500    -143421.4    -143443.4    21.995779    25.247616   -156517.91            0    1003.9678    28.365852    410.14451    378.03852    428.72505    437.10778    40.128349    40.120598    48.113157 
   41600   -143420.34   -143442.85    22.510742    25.120243   -156440.75            0    968.76892    29.029952    460.75858    515.90347    485.21995    396.29609    40.103812    40.102106    48.119894 
   41700   -143419.38   -143441.84    22.454476    25.788768   -156484.51            0    989.32055     28.95739    452.91004    426.34904    464.23184    482.75176    40.107292    40.109553    48.132826 
   41800   -143418.52   -143440.84    22.324569    26.043929   -156497.13            0    996.40759    28.789862    409.89205    457.81586    450.56487    333.86695    40.098468    40.110976    48.149021 
   41900   -143417.81   -143440.18    22.367412    26.315569   -156431.23            0    965.95447    28.845112     348.4141    347.19502    356.01453    355.55833    40.088721    40.099945    48.142793 
   42000   -143417.25   -143441.07    23.818511    26.485763   -156511.55            0    1003.8034    30.716456    241.32215    250.18898    235.96095    248.58716    40.114893    40.116542    48.137483 
   42100   -143416.98   -143441.37    24.392389    26.054544   -156454.59            0    978.06318    31.456532    147.89412     144.3574    144.67806    166.55139     40.11557     40.10554    48.121944 
   42200   -143416.95   -143441.17    24.223753    25.889683   -156450.21            0    976.49193    31.239058    29.534743    46.068556    15.608347      42.0544    40.122894    40.109616    48.111009 
   42300   -143417.09   -143441.73    24.648027    25.944503   -156499.37            0    1000.1125    31.786204    -53.42493   -44.181092   -69.287073    -31.46585     40.12703    40.110139    48.132404 
   42400   -143417.53   -143441.52    23.993707    25.848858   -156428.74            0    967.83977     30.94239   -105.04078    -84.61873   -83.489282   -132.96431    40.106576    40.100993    48.131224 
   42500   -143418.06   -143441.13    23.074862    26.120457   -156482.33            0    993.08611    29.757444   -156.15739   -142.45155   -157.73493   -154.98425    40.104738    40.111445    48.151674 
   42600    -143418.6   -143441.66    23.059524    25.795087   -156466.41            0    985.46994    29.737664   -158.62715   -146.54343   -150.40391   -165.85656    40.090538    40.113567    48.156643 
   42700    -143419.1   -143441.91    22.804513    25.719436   -156433.72            0    970.26128    29.408799   -195.51454   -215.65249   -199.37909   -158.85333    40.101526    40.113787    48.127117 
   42800   -143419.44   -143442.47    23.028724    25.436337   -156502.05            0    1002.4032    29.697943   -262.06979   -254.17159   -263.15976   -256.22589    40.120895    40.124563    48.128898 
   42900   -143419.65   -143443.01    23.355437    25.104677   -156430.41            0    968.81822    30.119274   -293.91583   -321.67214   -341.66636   -204.98483    40.122326    40.107512    48.110391 
   43000   -143419.71   -143442.38    22.667045    25.376632   -156461.64            0    983.22733    29.231521   -242.29434   -229.36896    -199.2302    -284.9615    40.126339    40.103097    48.126518 
   43100   -143419.56    -143442.2    22.634869    25.745718   -156494.69            0     998.1832    29.190027   -106.18146   -83.079718   -125.60527   -96.429852    40.116629    40.105193    48.147983 
   43200    -143419.3   -143441.98    22.677155    25.561372   -156430.19            0    966.16887    29.244559    138.64315    179.45385    143.27685    106.24237    40.090211    40.105905    48.138199 
   43300    -143418.9   -143441.49    22.594076    25.893432   -156504.04            0    999.06704     29.13742    362.81688     393.5397    362.35266     344.7902    40.088578    40.119464    48.157367 
   43400   -143418.43   -143442.16    23.720616     25.56819   -156470.52            0    982.23121    30.590211    502.74776    539.87693    539.37328    441.28874    40.095034    40.117326    48.130142 
   43500   -143418.04   -143441.99    23.945253    25.573591   -156461.11            0    977.74816    30.879903    550.91522    562.13665    508.86098    594.43119    40.106357    40.110253    48.118136 
   43600   -143417.75   -143441.85    24.096806    25.694763   -156507.82            0    999.97004    31.075346    456.92035    449.42364    494.22627    440.19731    40.127455    40.107856    48.124637 
   43700   -143417.63   -143441.23    23.604681    25.845013    -156440.7            0    970.15611    30.440701    336.60907    321.26531    339.89256    361.62976    40.121227    40.095175    48.114287 
   43800   -143417.59      -143441    23.411281    26.079619    -156487.8            0    992.95532    30.191291    217.84643    235.63432    241.35683    189.76863    40.114628    40.101635    48.143728 
   43900   -143417.65   -143441.27    23.619431    26.070827   -156477.94            0    988.67451    30.459721    164.31312    163.48038    181.54244    161.62351    40.101185    40.113411    48.141585 
   44000   -143417.89   -143441.44    23.541253    25.762751   -156435.77            0      969.306    30.358902    112.69774    143.53519    152.78069    54.694066    40.087866    40.109319    48.141226 
   44100   -143418.22   -143442.07    23.852531    25.579581   -156506.98            0    1002.6843    30.760328    28.074031    30.411862     9.224862     58.08808    40.107043    40.129208    48.135346 
   44200   -143418.61   -143442.03    23.416054    25.561013   -156444.04            0    974.10821    30.197446    -49.63554   -56.597236   -13.370706   -64.716406    40.110268    40.110885    48.121188 
   44300   -143418.92   -143441.81    22.895666    25.677556   -156453.13            0    978.79935    29.526352   -151.55228   -152.39732   -162.03523   -127.10697    40.120429     40.10737    48.121959 
   44400   -143419.14    -143442.2    23.067985    25.514004   -156494.25            0    998.64662    29.748574   -221.57947   -223.39076   -199.43484   -229.29369      40.1334    40.108315     48.12805 
   44500   -143419.33   -143442.13    22.803915    25.330197   -156429.02            0    968.71494    29.408029   -268.36733   -275.75057   -260.96803   -255.39191    40.105141    40.101197    48.136773 
   44600   -143419.38   -143442.05    22.666269    25.579681   -156480.09            0    992.34539    29.230519   -298.74099   -276.03989   -248.81396   -357.34796    40.103461    40.113605     48.15331 
   44700    -143419.3    -143441.7    22.403155    25.797744   -156460.37            0    983.53196    28.891206    -286.5322   -265.92786   -305.33758   -275.33856    40.096529    40.116672    48.145865 
   44800    -143419.1   -143442.23    23.124451    25.476061    -156443.9            0    975.43572    29.821393   -240.85777   -231.91271   -203.21243   -275.36596    40.102049    40.113896    48.132257 
   44900   -143418.83   -143442.37    23.543976    25.229725   -156498.42            0    999.86882    30.362415   -152.96661   -132.14293   -171.91455   -141.49316    40.120986    40.119563    48.130294 
   45000   -143418.52   -143441.56    23.040356    25.801128   -156432.75            0    968.87814    29.712944   -31.676804   -34.142277   -13.189068   -35.130915    40.117611    40.099048     48.12041 
   45100   -143418.17   -143442.21    24.041518    25.560992   -156480.11            0    989.38848    31.004047    143.75233    100.50533    123.37271    220.98298    40.127893    40.107896    48.117556 
   45200   -143417.93   -143441.67    23.735948    25.951364    -156490.4            0    993.41492    30.609983    306.10485    311.41658    374.91818    245.78919    40.110603    40.110166    48.136013 
   45300   -143417.79   -143441.42    23.626322    25.938011   -156442.34            0    969.60887    30.468609    445.27292    455.77656    414.00817    479.63819     40.09499    40.111755    48.124826 
   45400   -143417.73   -143441.86    24.126837    25.643658   -156509.53            0    1000.4501    31.114075    511.30389    515.36378      562.803    469.60837    40.098943    40.120087    48.143163 
   45500   -143417.83   -143441.29     23.45982    26.067254    -156467.4            0    981.30086    30.253887    527.77495    592.40231    510.73458    493.33891    40.093455    40.109652    48.138465 
   45600      -143418   -143441.81    23.813868    25.841902   -156462.45            0     978.7817    30.710469    476.68222    502.37661     490.9081     448.4378    40.105967    40.105787    48.127586 
   45700   -143418.27   -143442.09    23.822114    25.553165   -156502.77            0     998.3033    30.721103    373.79253    355.52485    348.11703    430.58371    40.122623    40.105617    48.131814 
   45800   -143418.62   -143441.55    22.939484    25.755111   -156446.25            0    973.33291    29.582859    238.13813    222.33638    278.36736    226.46709     40.11829    40.103804    48.112414 
   45900   -143418.86   -143442.18    23.326579    25.411869   -156480.77            0    990.16393    30.082058    69.380256    47.531086    62.226861    110.52567    40.115987    40.113149    48.127993 
   46000   -143419.08   -143441.98    22.896627    25.641117   -156473.13            0    987.51799    29.527591    -52.96836   -83.667158   -8.4096153   -52.493695    40.108399    40.116744    48.132149 
   46100   -143419.21   -143441.82    22.612149    25.599667   -156437.84            0    971.90109    29.160726   -148.72246   -127.32173   -135.05685   -170.55336    40.100504    40.109349    48.134128 
   46200   -143419.21    -143442.3    23.084819    25.340444   -156495.39            0    999.03259    29.770283    -192.1543     -157.733    -159.7841   -245.80813    40.104981    40.113054    48.155965 
   46300   -143419.14   -143442.12    22.970355     25.70626   -156444.94            0    975.52148     29.62267   -207.10182   -193.20908   -221.98393   -192.17928    40.109248    40.103752    48.135995 
   46400   -143418.99   -143442.01    23.018655    25.523835   -156457.49            0    981.47921    29.684958   -212.08835   -191.03588   -206.06006   -227.22441    40.115231    40.105576    48.133541 
   46500   -143418.74   -143442.17    23.427584    25.558337   -156489.06            0    996.27103    30.212315   -201.65118   -206.92675   -219.08864   -166.20511    40.122548     40.11545    48.129046 
   46600   -143418.51   -143441.63    23.120451    25.831513   -156431.74            0    969.13101    29.816235   -157.47881    -170.4436   -160.14613   -128.11848    40.107418    40.113622    48.118664 
   46700   -143418.24   -143441.77    23.533118    25.661482   -156484.43            0    993.30386    30.348412   -103.37302   -97.156305   -91.334148   -109.26292    40.107688    40.120972    48.135978 
   46800   -143418.01   -143441.39    23.378427    25.829637   -156468.83            0    986.06829    30.148922   -56.299413   -45.085486    -27.28399   -83.327803    40.105535    40.115337    48.135117 
   46900   -143417.89   -143441.16    23.270588    25.947053   -156442.63            0    973.58734    30.009852    -3.175495    22.065365    12.370323   -31.649877    40.097967    40.103621    48.142836 
   47000   -143417.85   -143440.87    23.020543    26.178987   -156497.24            0    998.52762    29.687393    71.354996    101.31531    81.499029     43.91112    40.117852    40.108051    48.140884 
   47100   -143417.91    -143441.2    23.294759    26.042701   -156450.37            0    975.38029    30.041023     233.1708    259.62438    224.28064    229.56479    40.112317    40.102528    48.124401 
   47200   -143418.06   -143441.93    23.874002    25.688465    -156479.3            0    987.52666    30.788017    409.51587    382.41271    374.76501    483.89648    40.113866    40.110983    48.121416 
   47300   -143418.34   -143442.22    23.887238    25.260789   -156491.36            0    991.89885    30.805087    506.66016    508.45973    507.56161    518.02365    40.108421    40.119405    48.122466 
   47400   -143418.61   -143441.38    22.771784    26.116868   -156449.52            0      972.551    29.366592    549.43768    543.92969       578.26    539.56046     40.09417    40.110068    48.126797 
   47500    -143418.8   -143442.09    23.293203    25.683507   -156504.71            0    998.48404    30.039017    508.09954    476.45036    529.16326    531.70506    40.103488    40.118446    48.135314 
   47600      -143419   -143442.13    23.129291    25.700359   -156466.73            0    981.20316    29.827634    414.30663    428.27085    456.42015    372.34189    40.103557    40.101208    48.139183 
   47700   -143419.12   -143442.02    22.901683    25.655785   -156455.01            0    977.33908     29.53411    217.31545    271.31952    253.32424    140.79898     40.11721    40.098273    48.125223 
   47800   -143419.15   -143442.54    23.391312    25.144867   -156496.76            0     997.9566    30.165539    29.150822    22.693698    10.175069    66.927266    40.130992    40.106636    48.126463 
   47900   -143419.11   -143441.71    22.597704    25.629743   -156438.15            0     972.3036    29.142098   -128.93284   -95.256037    -142.3433   -137.22957    40.110673     40.10607    48.124579 
   48000   -143418.92   -143442.06    23.133103    25.804649   -156469.13            0    986.89647    29.832551   -209.40219   -205.15948   -218.01465   -192.36855    40.110402    40.116778    48.131846 
   48100   -143418.73   -143442.01    23.285962    25.587846   -156471.87            0    988.27563    30.029679   -216.54582   -237.95051     -217.009   -180.69185    40.097774    40.120336    48.144649 
   48200   -143418.51   -143441.55    23.039111    25.773686    -156438.2            0    972.94169    29.711339   -218.92764   -238.34792   -210.53114   -194.62625    40.098625    40.111907    48.135636 
   48300   -143418.26    -143441.9    23.640274    25.569174   -156491.93            0    997.67066    30.486601   -210.58299   -199.97947   -178.87412   -239.21702    40.114177    40.112687    48.144973 
   48400   -143418.05    -143441.4    23.345709    25.976352   -156441.78            0    974.52761    30.106728   -200.28937   -205.20154   -174.26391   -206.79122    40.122566    40.098235    48.125108 
   48500   -143417.91   -143441.81    23.906397    25.879372   -156461.62            0    983.41515    30.829794   -170.12173   -164.43633   -139.86727   -192.60086     40.12927    40.100775    48.123421 
   48600    -143417.9   -143442.02    24.126097    25.421085    -156490.4            0     996.4878     31.11312   -127.99687   -117.26915   -109.57426   -143.55057    40.117757    40.111651    48.138402 
   48700      -143418   -143441.61     23.60955    25.673389   -156430.47            0     968.3176    30.446979   -73.753195   -70.542434   -80.338438   -56.205735    40.098949    40.114828    48.123421 
   48800   -143418.17   -143441.42     23.24903    25.918999   -156490.75            0    995.72707    29.982051   -1.6891943   -8.2791529   -4.2193324    20.310412    40.092737    40.128533    48.145379 
   48900   -143418.39   -143441.65    23.265503    25.814223   -156469.52            0    985.26587    30.003295    81.494606    105.84413    114.48619    36.598995    40.096777    40.117174    48.139777 
   49000   -143418.58   -143441.86    23.276044     25.64538   -156446.09            0    973.51385    30.016888    185.20864    163.05513    214.04262    191.15191    40.110285    40.101826    48.125742 
   49100   -143418.79   -143442.13    23.336809      25.3522   -156504.06            0    999.81758    30.095251    243.75438    261.18469     282.0225    201.51551    40.130924    40.098036    48.135258 
   49200   -143418.99   -143441.77    22.777358    25.426796   -156447.71            0    973.68323    29.373781    280.69853    291.99649    310.63278    252.73558    40.120656    40.096311    48.117752 
   49300    -143419.1   -143441.84    22.745396    25.794344   -156481.78            0    989.47217    29.332562    286.23059    317.71211    306.33904    247.46409    40.107339    40.108745    48.136677 
   49400    -143419.1    -143442.2    23.098738    25.616533   -156485.45            0    990.71742    29.788234    293.29119     297.5715    258.73513    337.38168    40.096313    40.124576    48.133536 
   49500   -143419.04    -143441.9    22.866663    25.670237   -156443.44            0    971.82374    29.488948    247.70502    290.99262    240.81894    225.05348    40.084854     40.11658    48.134987 
   49600   -143418.87   -143442.09     23.21147    25.478503   -156500.89            0    999.37294    29.933613    131.47376    95.245931    116.78435    195.05921    40.105474    40.120024    48.140625 
   49700   -143418.69   -143441.81    23.117537    25.616312   -156452.24            0    977.88149    29.812477   -33.272782   -31.461143   -21.946524   -32.878226    40.125154     40.09871    48.121928 
   49800   -143418.49   -143441.43    22.931091    25.658237   -156449.82            0    978.83259    29.572035   -285.92383   -272.50317   -263.68215   -308.06321    40.130332    40.095284    48.126114 
   49900   -143418.26    -143441.6    23.340026    25.729826   -156488.45            0     998.4933      30.0994   -513.69403   -494.29684   -457.22906   -576.96205    40.132849    40.108283    48.134964 
   50000   -143418.08   -143441.39    23.315561    25.793847   -156415.03            0    966.01237    30.067849   -730.51148   -756.24538   -765.72783   -656.64553    40.103619    40.111989    48.132232 
Loop time of 23582.6 on 8 procs for 10000 steps with 12000 atoms

Performance: 0.015 ns/day, 1637.678 hours/ns, 0.424 timesteps/s
19.9% CPU use with 8 MPI tasks x no OpenMP threads

MPI task timing breakdown:
Section |  min time  |  avg time  |  max time  |%varavg| %total
---------------------------------------------------------------
Pair    | 19942      | 20482      | 20860      | 176.1 | 86.85
Bond    | 1.5084     | 1.6333     | 1.7131     |   5.1 |  0.01
Neigh   | 0          | 0          | 0          |   0.0 |  0.00
Comm    | 2687.6     | 3066.4     | 3605.1     | 454.9 | 13.00
Output  | 0.58115    | 0.58422    | 0.59481    |   0.5 |  0.00
Modify  | 25.131     | 25.923     | 26.639     |  10.5 |  0.11
Other   |            | 6.453      |            |       |  0.03

Nlocal:    1500 ave 1504 max 1496 min
Histogram: 1 0 2 0 0 2 0 2 0 1
Nghost:    24374 ave 24378 max 24370 min
Histogram: 1 0 2 0 0 2 0 2 0 1
Neighs:    2.1765e+06 ave 2.18496e+06 max 2.16774e+06 min
Histogram: 2 0 0 1 0 1 2 1 0 1

Total # of neighbors = 17411962
Ave neighs/atom = 1451
Ave special neighs/atom = 1
Neighbor list builds = 0
Dangerous builds = 0
unfix NPT
fix NPT all npt temp 30 30 0.100000 tri 1. 1. 0.100000
fix_modify NPT temp CSequ
run 30000
Memory usage per processor = 21.0002 Mbytes
Step TotEng PotEng KinEng Fnorm E_coul E_long E_bond Temp Press Pxx Pyy Pzz Lx Ly Lz 
   50000   -143418.08   -143441.39    23.315561    25.793847   -156415.03            0    966.01237    30.067849   -730.51148   -756.09193   -765.53961   -656.61681    40.103619    40.111989    48.132232 
   50100   -143418.12    -143441.5    23.382463    25.842533   -156471.25            0     991.1069    30.154126   -632.21468   -568.55851     -621.528   -693.94963    40.099028    40.129654    48.144803 
   50200   -143418.25    -143441.6    23.353243    25.717992   -156462.01            0    985.98609    30.116445   -511.77666   -524.69431   -528.04358   -469.48523    40.099109    40.127562    48.138431 
   50300   -143418.45   -143441.48     23.02303    25.639806    -156436.8            0    973.53902      29.6906   -366.01336    -349.4181   -374.03508   -361.88034    40.106069    40.110719    48.131127 
   50400   -143418.68   -143442.02    23.344019    25.385013   -156490.27            0    996.90528    30.104548   -223.63701   -242.90079   -224.28192   -190.42796    40.134131    40.106902     48.12731 
   50500   -143418.83   -143441.77    22.938014    25.615451   -156442.51            0    973.99286    29.580963   -84.949966   -65.651827   -35.507413    -141.0424    40.120482     40.09546    48.126649 
   50600   -143418.88   -143441.93    23.045742    25.903881   -156473.13            0    987.40289     29.71989    29.297467    30.139977    46.948084    23.164107    40.117834    40.107466    48.128365 
   50700    -143418.9   -143442.31    23.410681    25.397178   -156487.59            0    993.31799    30.190517     99.81742    144.22115    108.66244    58.648117    40.102325    40.119089    48.138978 
   50800   -143418.89   -143441.88    22.991026    25.679099   -156434.13            0    968.00847    29.649328    167.85404      191.453    157.22229    168.59371    40.087959    40.114238    48.131815 
   50900   -143418.82   -143442.09    23.268519    25.838971   -156505.31            0    1000.6651    30.007184    210.14621    234.53851    193.03301    216.45186    40.101519    40.121125    48.144417 
   51000   -143418.75    -143441.8    23.047509    25.566344   -156461.19            0    980.20432    29.722169    227.69036     224.1386    208.67147    263.89014    40.109583    40.097866    48.138144 
   51100   -143418.67   -143441.57    22.903123    25.841296   -156449.86            0    975.27797    29.535968    187.69949    177.01343      220.094    179.66763    40.126113    40.091579    48.121471 
   51200   -143418.54   -143441.83    23.281222    25.817847   -156504.98            0    1001.4725    30.023565    130.20765    96.991526    147.14776    159.00271    40.132305    40.099775    48.134839 
   51300   -143418.48   -143441.73     23.25769     25.57767   -156440.22            0    971.90284    29.993219    89.310668    97.885988    125.64124    58.583618    40.111689    40.106782    48.117066 
   51400   -143418.38   -143441.51    23.135816    25.853983   -156481.76            0    991.47533     29.83605    7.0551843    4.0708856     37.13615   -6.1020723    40.108586    40.123749     48.12651 
   51500   -143418.28   -143442.01    23.732011    25.526508   -156469.97            0    986.47335    30.604905   -87.451957    -48.47744   -78.182962   -122.37155    40.094519    40.125614    48.137417 
   51600   -143418.28   -143441.89    23.602961    25.630172   -156436.51            0    972.31996    30.438482    -257.4414   -235.59616   -306.54564   -216.67467    40.097668    40.111749    48.137213 
   51700   -143418.33   -143441.71     23.38615    25.732839   -156491.54            0    999.10091    30.158881    -447.7034   -409.73693   -433.44972   -486.31935    40.116102    40.103084    48.161651 
   51800   -143418.48   -143441.59    23.103098    25.733684   -156430.64            0    972.13075    29.793856   -592.18088   -603.20482   -608.11779    -550.7332    40.122726    40.091689    48.137747 
   51900   -143418.77   -143441.93    23.163458    25.535813   -156454.33            0    983.48858    29.871696    -650.5593   -635.73506    -651.0612   -651.46074    40.125476     40.10231    48.135822 
   52000   -143419.02   -143442.37    23.355969    25.322428   -156480.04            0    995.04989    30.119959     -613.361   -652.61801    -562.1891   -612.37089    40.123519    40.119924    48.129303 
   52100   -143419.17   -143442.37    23.204791    25.450662   -156421.01            0    966.44045       29.925   -480.52006   -489.01228   -435.08342   -504.03392    40.105546    40.121606    48.113449 
   52200    -143419.2   -143442.06    22.856089     25.56682   -156489.68            0    996.92549    29.475312   -298.93559   -309.55251   -307.54931    -265.8007    40.100418    40.129611    48.142593 
   52300   -143419.09   -143442.03    22.935375    25.697888   -156457.62            0    981.20237    29.577561   -129.24439   -113.32605    -104.2458   -156.53334    40.099031    40.112853     48.14095 
   52400   -143418.91   -143442.19    23.284878    25.677711   -156448.89            0    975.59794    30.028281    37.426438    46.513802    17.606073     61.36299    40.104589    40.096261    48.145456 
   52500   -143418.72   -143441.83    23.113807    25.779816    -156503.8            0    1000.7857    29.807666     132.5489    171.77121    113.13358    124.79828    40.124085    40.096579    48.148006 
   52600   -143418.55   -143441.71    23.153467    25.936191   -156440.39            0    971.03985    29.858812    218.18365    218.06758    236.82144    212.87407    40.119164    40.093133    48.120784 
   52700   -143418.46   -143441.62    23.158566    25.932115    -156487.9            0    992.74287    29.865388    246.44216    259.48876    259.63669    233.55873    40.121433    40.111942    48.120686 
   52800   -143418.42   -143441.39    22.970482    25.918091   -156482.38            0    990.27694    29.622834    218.74252    215.79328    219.14523    233.55447    40.113065    40.128495    48.109489 
   52900   -143418.38   -143441.45    23.072244    25.870808   -156440.13            0     970.7464    29.754067    194.85093    203.07958    231.42584    162.56505    40.093406    40.114458    48.128101 
   53000   -143418.37   -143441.57    23.201551    26.128113   -156508.51            0    1003.0225    29.920821    138.31404     144.9358    137.96195    145.54934    40.104631    40.118598    48.147688 
   53100   -143418.41    -143441.7     23.29629    25.509869   -156443.84            0    973.22724    30.042997    80.433216    100.17795    87.646133    66.967842    40.103145    40.093479    48.146788 
   53200   -143418.43   -143442.06     23.63178    25.512256   -156461.66            0      982.024    30.475647    5.4465123    17.887947 -0.092742081    11.761786    40.109999    40.095072    48.147906 
   53300   -143418.52   -143441.93    23.409087    25.867533   -156495.15            0    998.24344    30.188462   -50.855512   -48.672261   -46.037471   -45.455953     40.12472    40.104948    48.137618 
   53400    -143418.7   -143441.84    23.131186    25.703961   -156430.97            0    968.49743    29.830079   -79.084994   -80.776082   -66.987763   -77.548717    40.111741    40.107668    48.116619 
   53500   -143418.94   -143442.15    23.212226     25.48692   -156490.59            0    996.23418    29.934588   -140.86643   -138.24538   -89.077525   -182.43416    40.118263    40.129229    48.117453 
   53600   -143419.21   -143442.22    23.009364    25.454187   -156458.61            0    982.44459    29.672976    -257.0268     -293.408   -210.16213   -254.33344    40.105112    40.121594    48.127484 
   53700   -143419.38   -143441.99    22.608983     25.61221   -156440.81            0    975.20394    29.156643   -412.55661    -374.6963   -380.22522   -470.17234     40.10275    40.108371     48.14168 
   53800    -143419.4   -143442.43    23.031244    25.439459   -156487.35            0    997.19174    29.701193   -515.56205   -534.19293   -493.36548   -506.14247    40.116636     40.10327    48.159874 
   53900   -143419.31   -143442.25    22.934862    25.415228   -156425.31            0    968.90656    29.576898   -524.78364   -498.32429   -540.91038   -522.07097    40.107711    40.092803    48.148713 
   54000   -143419.12   -143441.88    22.757907    25.635508   -156469.11            0     988.8798    29.348697    -439.1471   -435.92264   -488.46764   -379.72732    40.122895     40.11052    48.130564 
   54100    -143418.9   -143442.37    23.462834    25.390683   -156476.22            0    990.70502    30.257773    -293.9042    -254.9963   -296.74396   -317.09667    40.115843     40.12401    48.122827 
   54200   -143418.79   -143442.58    23.781087    25.334567   -156431.26            0    968.06089    30.668193   -69.551026   -108.37103   -63.378326    -24.25507    40.103912    40.125679    48.104348 
   54300   -143418.71   -143441.85    23.138149    25.790636   -156504.17            0    1000.7355    29.839058    130.86212     173.8366    141.03021      90.4049    40.108312    40.128166    48.129954 
   54400   -143418.61   -143441.84    23.236787    25.800275   -156456.92            0    978.04949    29.966263    274.15683    240.69708    335.97753    258.66085    40.106599    40.096928      48.1389 
   54500   -143418.53   -143441.74    23.215437    25.627853   -156464.09            0     980.4145     29.93873    387.76321    393.96643    414.02407     368.0127    40.112262    40.086339    48.145891 
   54600   -143418.46   -143441.05    22.590595    26.200096   -156501.29            0    997.87025     29.13293    399.05448    408.43423    398.62577    401.52028    40.115833     40.08774    48.160237 
   54700   -143418.32   -143441.42    23.092447    26.011623   -156445.47            0    972.20247     29.78012     374.2386    416.77773    369.65402    348.05947    40.107373    40.102183    48.122849 
   54800   -143418.24    -143441.7    23.463501    25.976637   -156491.25            0    993.69241    30.258633    300.98561    288.62494    297.98064    329.79567    40.112201    40.123925    48.118179 
   54900   -143418.24   -143441.42    23.181554    25.917027   -156468.76            0    984.03321    29.895034     222.4576    265.79616    203.76311    211.81671    40.101948    40.130516    48.112635 
   55000   -143418.23   -143441.93    23.700117    25.670835   -156452.65            0    976.94183    30.563775    139.16584    135.81277    163.53912    131.84388     40.10553    40.111904    48.124423 
   55100   -143418.33    -143441.5    23.170229    25.897526   -156498.64            0     999.0456    29.880428    55.651968    58.024021    74.604914    48.007974    40.113241    40.101623    48.155103 
   55200   -143418.57   -143441.61    23.040608    25.613841   -156438.82            0    971.51611    29.713269  -0.68799236   -4.6612927  -0.20916576    16.250055    40.109472    40.086648    48.146898 
   55300    -143418.8   -143441.83    23.026173      25.7208   -156471.91            0    987.14746    29.694653   -56.754344    -49.06788   -57.119368   -51.188459    40.114427    40.095388    48.149919 
   55400   -143418.99   -143442.12    23.125081    25.492911   -156480.86            0     991.5791    29.822206   -100.08893   -110.39585   -107.74559   -68.860887    40.122784     40.11706     48.11963 
   55500   -143419.09   -143442.11    23.020832    25.469459   -156436.47            0    970.98506    29.687766   -115.88722   -108.52458   -133.01987   -93.044579     40.11138    40.123615    48.102087 
   55600   -143419.05   -143442.51    23.461015    25.311682   -156487.67            0    994.54824    30.255428   -120.88769   -122.07958   -107.21113    -119.7171    40.113923    40.130555    48.118736 
   55700   -143418.96   -143442.19    23.226931    25.531815    -156456.3            0    980.32094    29.953552   -105.20139   -111.82866   -99.341713   -90.900378    40.112414    40.110011    48.126846 
   55800   -143418.83   -143441.82    22.992491    25.710201   -156458.68            0    981.15023    29.651217   -90.596401   -87.344097   -58.723397   -112.01074    40.107562    40.092597    48.155804 
   55900   -143418.67   -143441.67     23.00135    26.013379   -156484.44            0    993.18161    29.662642   -78.861088   -77.123115   -53.787446   -92.001333     40.11303    40.094475    48.160211 
   56000   -143418.58   -143441.95    23.379437    25.596715   -156440.01            0    972.30532    30.150225    -50.77674    -48.68523   -17.196558   -73.129423    40.106236    40.095253     48.14237 
   56100   -143418.53   -143441.99    23.457778    25.630676    -156487.1            0    993.86009    30.251253   -2.2884975    47.940971   -34.705947   -7.0902757    40.118611    40.119569     48.12239 
   56200   -143418.51   -143442.02    23.517286    25.520154   -156467.88            0    984.09568    30.327996    98.668981    97.292497    117.62145    94.387763    40.113814    40.128698    48.104044 
   56300   -143418.49   -143442.11    23.618691    25.635169    -156450.6            0     975.0322    30.458767    232.59626    265.98592    178.86768    265.25764    40.103567      40.1196    48.113964 
   56400   -143418.52   -143441.46    22.943365    25.855346   -156503.04            0    998.77708    29.587864    354.58643    350.06649    380.28719    347.05806    40.111527    40.115281     48.13466 
   56500   -143418.52   -143441.79    23.274484    25.511688   -156456.49            0    976.07225    30.014877    475.21299      487.383     462.7495    489.61269    40.097783    40.088289    48.154762 
   56600   -143418.46   -143441.93     23.46741    25.689157   -156477.64            0    985.59989    30.263675    519.55486    459.08074    607.81439    503.93862    40.105756    40.090791    48.151957 
   56700   -143418.42   -143441.82    23.404222    25.919765   -156491.63            0    992.43877    30.182188    509.23096    568.28769    456.89753    514.66434    40.112393    40.102003    48.137888 
   56800   -143418.43   -143441.54    23.111467    25.871065   -156453.29            0    975.09674    29.804649    439.14159    401.66821    532.28503    395.62003    40.111101    40.110982    48.110766 
   56900   -143418.45    -143441.4    22.950747    25.827156   -156494.51            0    995.21359    29.597384    294.71911    353.70692    215.57627    328.36519    40.116581    40.130849    48.107322 
   57000   -143418.43   -143442.28    23.846749    25.571777   -156461.14            0    980.63143    30.752872    144.23594    146.91565    194.77379    104.74138    40.106661    40.113209    48.125809 
   57100   -143418.48   -143441.93    23.446347    25.722754   -156459.61            0    981.57599    30.236512   -69.260665   -8.5831715   -139.81059    -46.00894    40.104768    40.105665    48.142924 
   57200   -143418.59    -143441.9    23.305603    25.823027   -156477.79            0    991.32119    30.055008   -250.58285   -295.44343   -172.50157   -270.45152    40.104262    40.095726    48.170528 
   57300   -143418.68   -143442.25    23.577758    25.522693   -156435.51            0    972.11804     30.40598   -361.36594   -302.63854   -426.26192   -341.74353    40.104148    40.096671    48.150621 
   57400   -143418.76   -143442.44    23.675812    25.521597    -156475.3            0    990.93842    30.532431   -372.39065   -396.90468   -292.10591   -414.41628    40.124679    40.109901    48.130687 
   57500   -143418.88   -143441.89    23.019115    25.348606    -156462.1            0    984.41409    29.685551   -306.21932   -266.01711   -339.23497   -299.67234     40.12012    40.122833    48.112233 
   57600   -143418.89   -143441.74     22.85469    25.747404   -156445.18            0    975.78548    29.473509   -227.78634   -218.11969    -190.3064   -261.66071     40.11785     40.12344    48.103518 
   57700   -143418.81   -143442.01    23.206233    25.580815   -156485.71            0    994.24885     29.92686   -157.69708   -115.63599   -192.86853   -151.66627    40.113052    40.120374    48.131795 
   57800   -143418.71   -143441.89    23.184716    25.754958    -156453.7            0    979.12464    29.899111   -97.312859    -101.7979   -73.281003   -102.90608    40.104385    40.100838    48.146641 
   57900   -143418.53    -143441.8    23.268968    25.833479   -156462.95            0    982.78334    30.007764   -37.094318   -20.233315   -51.641501   -25.670961    40.098836    40.095086    48.164215 
   58000   -143418.29   -143441.61    23.313056    25.725168   -156479.75            0    990.32579    30.064619    33.517147    6.3757321    100.66701    7.0872249    40.109686    40.093927    48.159138 
   58100   -143418.08   -143441.62    23.542817    25.821797   -156452.42            0    977.08928     30.36092    114.57924    111.95081    113.90433    131.16895    40.116692    40.109737    48.114508 
   58200   -143417.99   -143441.28    23.290019    26.093378   -156483.41            0    990.70041    30.034911    230.30776    212.04402    279.68317    211.95249     40.12163    40.121823    48.107746 
   58300   -143418.02    -143441.4        23.38    25.889903   -156467.87            0    982.03855    30.150951     419.9652    441.55831    399.10988    433.31368    40.115322     40.12751    48.094646 
   58400   -143418.07   -143441.84    23.774701    25.790301   -156471.47            0    982.29473    30.659958    613.91146    591.68076    647.46271    615.90578    40.105801    40.109053    48.123583 
   58500   -143418.21   -143441.95    23.731543    25.830247   -156501.03            0    995.36993    30.604302    698.46084    740.78961    635.85744    731.56833    40.098386     40.09929    48.157546 
   58600   -143418.38   -143441.94    23.560118    25.615728   -156461.24            0    976.75971    30.383232    656.57834    618.84543     724.0764    640.14292     40.09342    40.082629    48.164586 
   58700   -143418.46   -143442.17    23.710411    25.825559   -156481.54            0     987.6678     30.57705    476.91021    488.97409    428.03209     527.0467    40.104232      40.0934    48.153773 
   58800    -143418.5   -143442.01    23.504107    25.739373   -156480.12            0    988.83667    30.310999    258.83048    225.94057    324.57408    239.52313    40.120268    40.112033    48.117502 
   58900   -143418.56   -143441.95    23.390654    25.540013   -156449.45            0    975.99822     30.16469    35.245954     47.54469    28.731435    43.602716    40.120472    40.121838    48.096176 
   59000   -143418.57   -143442.03    23.456454    25.492156   -156480.74            0    991.68094    30.249545   -120.22604   -134.61904   -65.593654   -147.66342    40.128313    40.129858    48.098454 
   59100   -143418.57   -143442.04    23.464973     25.58511    -156452.8            0    979.31146    30.260532   -198.61155    -159.4733   -239.00483    -183.6624    40.114913    40.117074    48.117112 
   59200   -143418.57    -143441.6    23.030488    25.884438   -156460.95            0    983.32252    29.700218   -237.50864   -222.56102    -213.0568   -263.70922    40.102935    40.099238    48.159224 
   59300   -143418.55   -143441.64    23.090328    25.902484   -156472.93            0    989.06041    29.777387   -242.79247   -216.95923   -285.68042   -212.42084    40.102934    40.092312    48.173787 
   59400   -143418.49   -143442.27    23.774638    25.586354   -156444.28            0    975.54704    30.659877   -223.26948   -219.94146   -216.64103   -220.18757    40.101925    40.091319    48.159298 
   59500   -143418.49   -143441.73    23.237308    25.742892   -156476.81            0    990.54423    29.966935   -174.76794   -168.77417    -183.3483   -159.47593    40.118863    40.115028    48.126848 
   59600   -143418.48   -143441.62    23.140611     25.79443   -156462.44            0    983.23685    29.842233   -118.02223   -119.54062   -105.30535   -115.74578    40.118873    40.128053    48.102674 
   59700   -143418.42   -143441.81    23.383757    25.845802   -156452.11            0    977.94809    30.155796   -60.874799   -41.390562   -66.236134    -61.49459    40.119526    40.126425    48.096368 
   59800   -143418.39   -143441.81    23.424366    25.662401   -156485.91            0    993.48125    30.208165   -19.289694   -15.106708   -10.193135   -19.818435    40.116296    40.122565    48.121723 
   59900   -143418.36   -143441.42    23.067813     25.45311   -156455.69            0    979.10275    29.748352    33.830156    58.888025    25.494762    30.014529    40.100898    40.092291    48.159206 
   60000   -143418.25    -143441.7    23.448227    25.814521   -156468.97            0    984.92983    30.238936    96.813134    106.68172    93.862378    103.55188    40.105071    40.084616     48.16772 
   60100   -143418.23    -143441.5    23.266728    25.852486   -156480.95            0    989.91454    30.004874      162.657    177.07113     174.8624    149.16833    40.110517     40.08741    48.163058 
   60200   -143418.33   -143441.26    22.935688    25.831041      -156456            0    977.74073    29.577964    246.42295    246.08702     274.0069    232.30374    40.112195    40.106048    48.123165 
   60300   -143418.38   -143441.89    23.512176     25.83142    -156487.9            0    991.95091    30.321406    309.81183    315.08597    324.75128    302.09897      40.1159    40.129624    48.104872 
   60400    -143418.5   -143442.14    23.639357    25.612547   -156464.16            0    980.33702    30.485419    370.20103    355.25926    399.80591    368.84352    40.111684    40.129929    48.095173 
   60500   -143418.74   -143441.35    22.615287    25.852354   -156474.51            0     985.4119    29.164773    387.26993    379.45911    419.26667    376.69928    40.110627    40.118922    48.114666 
   60600   -143418.87   -143441.97    23.101101     25.67389   -156488.71            0    992.07612    29.791281    341.24489    374.53659    296.72416    365.93352    40.106274    40.097163    48.154487 
   60700   -143418.96    -143442.1    23.141272    25.696497      -156451            0    975.72776    29.843086    174.59036    168.85455    182.54743    185.76989    40.105677    40.082608    48.156997 
   60800   -143418.99   -143442.04    23.051595    25.509364    -156477.8            0    989.90705    29.727438   -57.160374   -48.128298   -41.200467   -69.350003    40.109921    40.095049    48.158476 
   60900    -143418.9   -143442.58    23.677297     25.33897   -156461.59            0    983.73527    30.534346   -276.49736   -260.91684   -289.81661   -265.59428    40.112927    40.117043    48.126125 
   61000   -143418.77   -143441.64    22.866517    25.768823   -156443.11            0     976.9507     29.48876   -467.04882   -467.25687   -468.13203   -452.46873    40.115695    40.135341     48.09677 
   61100   -143418.43   -143441.83    23.396915    25.623493   -156466.54            0    988.24635    30.172764   -532.91933   -542.18181   -476.41047   -567.20956    40.115133    40.137718    48.109542 
   61200   -143418.11   -143441.78    23.666817     25.68755   -156450.35            0    980.58645    30.520831   -492.47103   -475.50008   -520.18522   -468.80015    40.108547    40.119384    48.129358 
   61300   -143418.04   -143441.14    23.098522    25.931025    -156457.6            0    983.46767    29.787955   -391.04546   -386.33725    -383.7599   -390.42865    40.102451    40.094957    48.167091 
   61400   -143418.01   -143441.93     23.91049    25.586556   -156467.42            0    986.57811    30.835072   -266.70524   -270.66285   -261.91933   -254.71856    40.112356    40.085506    48.168567 
   61500   -143418.09   -143442.18    24.095311    25.445084   -156451.68            0    978.57443    31.073419   -167.22011   -153.49026   -177.98591   -157.01693    40.114187     40.09105    48.147842 
   61600   -143418.25   -143441.46    23.213214    26.023643   -156474.87            0    989.13915    29.935862   -95.023349   -103.20457   -81.182847   -88.316696    40.123883    40.110302    48.123449 
   61700   -143418.42   -143441.93     23.51212     25.44768   -156463.17            0    982.98567    30.321332   -26.213347   -28.511151   -2.3702268   -34.086667     40.12292    40.129954     48.09239 
   61800    -143418.6   -143442.05    23.453888    25.509127   -156458.98            0    980.48717    30.246236    47.036359    52.332621     62.07565    40.557619    40.111668    40.126339    48.105647 
   61900   -143418.71   -143442.22    23.507796    25.631759   -156485.33            0    992.01494    30.315757    138.64833    120.10541    158.26121    149.92791    40.104971     40.11972    48.132897 
   62000   -143418.77   -143441.88      23.1137    25.698256   -156460.06            0     979.4847    29.807529    245.60918    240.90129    261.56839    246.26092    40.094979    40.091564    48.162438 
   62100   -143418.76    -143441.6    22.837781    25.948318    -156475.4            0    985.97848    29.451702    329.31594    334.01187    321.00565    345.78897    40.100456      40.0895    48.164512 
   62200   -143418.68    -143442.2     23.51526    25.737309   -156482.18            0    988.73355    30.325382     378.2873    393.97558    347.89054    406.80447    40.108645    40.099883     48.14375 
   62300   -143418.66    -143441.6    22.945955    25.707077   -156464.29            0    980.95081    29.591204    370.26499     377.8035    383.75381    362.30899    40.110968    40.112657    48.115586 
   62400   -143418.58   -143441.36    22.776462    25.865628   -156486.41            0    991.48944    29.372625    306.50308    339.55865    273.35462    318.11939    40.120234    40.135367    48.092205 
   62500   -143418.37   -143441.78    23.416807    25.697088   -156461.79            0    980.71423    30.198417    207.83122    205.82474    215.35833    214.73658    40.113452    40.123698    48.103588 
   62600   -143418.05   -143441.35    23.302869    26.140813   -156468.28            0    985.16578    30.051482    48.667588    56.881067    78.354088    23.672436    40.109109    40.111908    48.131361 
   62700   -143417.75    -143441.5    23.749201    26.055086    -156474.6            0      988.968    30.627073   -97.835569   -83.450986    -79.45789   -116.83668     40.10783    40.094903    48.161548 
   62800   -143417.65    -143441.5    23.852623    25.981694   -156443.83            0    975.74034    30.760448    -251.1423   -245.05012     -268.294   -226.19096    40.104734    40.087722    48.162069 
   62900    -143417.7   -143441.45    23.753456    25.897146   -156470.02            0    989.26398    30.632561   -400.57069   -419.06567   -362.03357   -406.84384    40.115557    40.104743    48.146602 
   63000   -143417.86   -143441.45    23.585935    25.952792    -156458.7            0    984.66353    30.416525   -505.83042   -466.80909   -536.73982   -500.71099    40.115107    40.122682    48.122919 
   63100   -143418.08   -143441.48    23.402467    25.836149   -156444.27            0    978.22257    30.179924   -563.20713   -583.09538   -554.51381   -538.63639    40.121296    40.131969    48.098513 
   63200   -143418.23   -143441.57    23.342306     25.81442    -156469.4            0    989.97951     30.10234   -561.88534   -548.95038   -524.42335   -599.01007    40.114981    40.131374    48.119741 
   63300   -143418.35   -143441.71    23.357738    25.673108   -156445.55            0    978.40458    30.122241   -493.19011   -492.05916   -450.91302   -522.60835    40.108252    40.106737     48.14204 
   63400   -143418.49   -143441.79    23.305204    25.720228   -156463.71            0    985.76163    30.054493   -376.55808   -370.16002   -391.86698   -354.16121    40.108225    40.096694    48.160981 
   63500    -143418.6   -143441.67     23.06307    25.678993   -156464.27            0    984.85593    29.742236   -219.46354   -257.10437   -147.40554   -241.09898    40.107862    40.086619    48.169307 
   63600   -143418.69   -143441.72    23.032378     25.63485   -156455.17            0    979.18604    29.702655    13.075142    42.225662   -4.9295217    15.200063    40.109239     40.10469    48.133352 
   63700   -143418.72   -143442.08     23.36196    25.698626    -156489.8            0     993.3304    30.127686     249.5306    230.24901    236.56997    295.86846    40.113493    40.123455    48.117384 
   63800    -143418.7   -143442.21    23.501721    25.685076   -156463.97            0    979.93223    30.307922    417.88691    420.47989    422.04356    424.92098    40.106587     40.13069    48.098297 
   63900   -143418.68   -143442.51    23.823368    25.426564   -156476.03            0    985.09992     30.72272    494.69931    502.74583    525.94741    468.80022    40.102869    40.118938    48.120362 
   64000   -143418.66   -143442.05    23.395761    25.544521   -156489.88            0    991.88342    30.171275    460.15116    479.25104    440.51234    474.03572    40.106894     40.10006    48.147172 
   64100   -143418.54   -143441.78    23.235553    25.706178   -156455.69            0    976.49754    29.964671    379.08957    358.89881    427.87278    363.35271    40.109939    40.082175    48.149629 
   64200   -143418.32   -143441.53    23.205123    25.751545   -156486.97            0     991.8425    29.925428    279.24021    282.48459    296.42769    272.00436    40.115186    40.088144    48.156445 
   64300   -143418.08    -143441.5    23.424505    25.743421   -156470.93            0    985.48424    30.208344    179.43581    162.25768    186.71668    203.05124    40.117787    40.109015    48.121462 
   64400   -143417.92   -143441.37    23.454785    25.987046    -156456.8            0     979.3885    30.247394    86.058149    92.457339    81.720428    96.738499    40.111858    40.124967    48.105726 
   64500   -143417.85   -143441.72    23.873415    25.801102   -156482.53            0    991.90622     30.78726   -5.5042704    6.4944063   -2.6918011   -6.8445939    40.106808    40.137914    48.112723 
   64600   -143417.94   -143441.24       23.297    25.912201    -156450.5            0      978.124    30.043913   -93.454078   -72.712864   -114.07035   -79.742343     40.09692    40.121102    48.129104 
   64700   -143418.12   -143441.28    23.167324    25.870929   -156470.46            0    987.70607    29.876682   -179.14477   -176.49718   -154.74649   -193.48091    40.099447    40.101606    48.163818 
   64800    -143418.3   -143442.24    23.941743    25.502733   -156465.85            0    985.87918    30.875377   -284.39793   -270.96225   -271.43934   -298.89241    40.113214    40.089289    48.162327 
   64900   -143418.53   -143441.67    23.149024    25.847595      -156444            0    977.25958    29.853083   -444.87352   -451.51714    -430.4462   -440.52974    40.118135    40.086742    48.151995 
   65000   -143418.63   -143441.85    23.226241    25.884013   -156471.03            0    990.74185    29.952662     -604.009   -618.25883   -590.43639   -590.83587    40.134947    40.106705    48.127864 
   65100   -143418.67   -143442.18    23.511366    25.434646   -156444.53            0    979.04103    30.320361   -687.91542   -668.17004    -661.8588   -720.71375    40.123905    40.123889    48.107861 
   65200    -143418.7   -143441.72    23.022911     25.66824   -156449.38            0    980.82195    29.690447   -620.79609    -594.0536   -668.84022   -586.97034    40.108508    40.131493    48.118536 
   65300   -143418.66   -143442.16    23.503748    25.568562   -156473.16            0    990.38668    30.310536   -419.08465   -440.70555   -392.31703   -411.52355    40.102733    40.130709    48.132604 
   65400   -143418.64   -143441.95    23.313113    25.538053   -156447.48            0    976.53886    30.064692   -152.80654   -96.821366   -141.46995   -206.37455    40.094541    40.102898     48.15437 
   65500    -143418.6   -143441.48    22.880046     25.84113   -156476.96            0    988.38251    29.506207    87.325871    95.926475    94.104943     86.27554     40.11026    40.095483    48.154288 
   65600   -143418.48   -143441.85    23.368132    25.589657   -156471.17            0    985.17975    30.135646     210.3284    214.89046     233.6373    195.87137    40.116847    40.087927    48.146888 
   65700   -143418.34   -143441.52    23.183584    25.695237   -156463.54            0     981.3896    29.897651    266.73116     261.7079     295.7858    255.38569    40.122595    40.100515     48.11916 
   65800   -143418.19   -143441.65    23.466247    25.636165   -156487.16            0    992.01697    30.262175    285.42488    287.18951     266.1333    315.91143    40.119944    40.124421    48.106644 
   65900   -143417.98   -143441.85    23.866018    25.610848   -156459.42            0    979.06149    30.777721    297.78311    288.36662    286.01962    332.40136    40.098608    40.125328    48.115358 
   66000   -143417.76   -143441.56    23.796094    25.823213   -156476.11            0     986.8514    30.687547    280.62339    305.78599    262.47705    287.19471    40.093525    40.128772    48.128061 
   66100   -143417.61   -143441.42    23.811716    26.015724   -156480.55            0    989.52957    30.707693    224.09591    241.17428    218.52843     226.2219    40.096898    40.109342    48.151071 
   66200   -143417.58   -143441.23    23.657403    25.994916   -156449.83            0    976.02976     30.50869    145.83489    155.89196    155.77038    138.85126    40.103149    40.093826    48.147374 
   66300   -143417.71   -143441.47    23.764666    25.878291   -156484.92            0    992.86827    30.647018    53.714362     60.04331    88.210036    25.148345    40.124402    40.090466    48.147594 
   66400   -143418.07   -143441.36    23.288926    25.804709   -156462.83            0    983.21209    30.033501   -36.269835   -33.985074   -21.634819   -41.473991    40.124509    40.099684    48.127257 
   66500   -143418.38   -143441.49    23.117308    25.952206   -156450.43            0    978.08216    29.812181   -148.32952   -166.64182   -150.94115   -115.31115    40.116513    40.118738    48.110658 
   66600   -143418.52   -143441.96    23.439614    25.610022   -156480.86            0    992.89249    30.227829    -260.2582   -249.48254   -259.83221   -257.87694    40.101541    40.133255    48.130551 
   66700   -143418.62   -143441.65    23.039452    25.655741   -156442.72            0    975.96131    29.711779   -363.97148   -362.88957   -369.61189   -345.79332    40.095835    40.124418    48.131056 
   66800   -143418.61   -143441.89    23.274821    25.687391   -156464.22            0    986.45813     30.01531   -447.33634   -436.46856   -452.45458   -440.27195    40.104194    40.111459     48.15022 
   66900   -143418.66   -143442.26    23.604888    25.470403   -156460.74            0    985.17562    30.440967   -487.74288   -461.30216   -466.14695   -522.71404    40.115147    40.095258    48.155002 
   67000   -143418.76   -143441.28    22.519616    25.920158   -156440.68            0     976.1218    29.041396   -488.18498   -457.53692   -471.63591   -522.51464    40.122471    40.094985    48.136648 
   67100   -143418.71   -143441.91    23.194251    25.483876   -156476.86            0    992.05195    29.911408   -418.28237   -426.30551   -419.24443   -396.63225    40.124183    40.111264    48.132757 
   67200   -143418.66   -143441.73    23.076385    25.696124   -156450.58            0    978.98232    29.759407   -292.53074   -282.17018   -295.58938   -286.50059    40.110514    40.129087     48.10986 
   67300   -143418.57   -143441.65    23.083574    25.756206   -156460.79            0    982.16073    29.768678   -56.440967   -47.356309    -77.21555   -31.350514    40.098518    40.131926    48.119196 
   67400   -143418.41   -143442.13    23.717988     25.47109   -156489.36            0    992.81721    30.586822    281.30912    264.33952    245.09636    347.86198    40.103204    40.124527    48.127549 
   67500   -143418.29   -143441.44    23.150599    25.836572   -156460.69            0    976.74855    29.855114    689.74299    712.27917    675.06635     694.0264    40.099401    40.096422    48.138898 
   67600   -143418.12   -143441.41    23.294829    25.936949   -156495.45            0    991.98554    30.041114    829.78589    874.00217    846.11617    781.28868    40.110132    40.084688    48.154439 
   67700   -143417.96    -143441.2    23.236376    25.963835   -156483.59            0    987.94763    29.965733    646.22326    634.51093     657.4476    660.27919    40.120746    40.091371    48.132785 
   67800   -143417.89   -143441.08    23.189509    25.966845   -156466.21            0     980.7892    29.905292    515.41544    517.58691     545.4098    496.98234    40.113966     40.10205    48.122943 
   67900   -143417.82   -143441.61     23.79245    26.003628   -156490.65            0    992.62054    30.682847    420.80638    426.71646    426.21414    422.84674    40.108042    40.128515    48.114149 
   68000   -143417.94   -143441.25    23.305779    25.954519   -156459.76            0    979.08296    30.055235    325.54381    295.16758     332.1212    363.19181    40.096141     40.12406     48.12011 
   68100   -143418.26   -143441.48    23.215201    25.734691    -156476.6            0    987.69062    29.938425    199.58422     210.6118     188.3256    212.87131    40.096648    40.120439    48.136383 
   68200   -143418.55   -143441.85     23.30161    25.656367   -156475.54            0    987.88936    30.049858    74.197697    77.518554    70.562644    87.489345    40.104367    40.105134    48.148569 
   68300   -143418.72   -143441.62    22.909479    25.705704   -156449.03            0    976.77568    29.544164   -70.702025   -43.149734   -82.316566   -73.061766    40.110258    40.089083    48.150554 
   68400   -143418.76   -143442.02    23.251897    25.579588   -156478.66            0    991.49876    29.985749   -209.50129   -214.41701   -183.55179   -217.23002    40.131876    40.095401    48.136475 
   68500    -143418.8   -143442.02    23.220694    25.545192   -156452.29            0    980.05167    29.945509   -325.66245   -309.01417   -302.36214   -352.61598    40.121259    40.104557    48.127618 
   68600   -143418.82    -143441.9    23.088129    25.497363   -156452.07            0    980.74464    29.774552   -446.32154   -478.02737   -415.01054   -432.95181    40.111611    40.121277    48.123052 
   68700   -143418.76    -143441.8    23.032738    25.599928   -156468.06            0    989.22869     29.70312   -590.67069   -582.01758   -587.68135   -589.20315    40.105781    40.131798    48.130515 
   68800   -143418.67   -143441.63    22.962595    25.693111   -156439.45            0    976.96584    29.612664     -719.295   -741.44898   -709.75794   -693.32003    40.097011    40.121266    48.142071 
   68900   -143418.47   -143441.82    23.344547    25.664781   -156455.25            0    984.29701     30.10523    -731.4677   -697.34166   -778.10638   -705.19334    40.104766    40.118063    48.145748 
   69000   -143418.26   -143441.86    23.606511    25.682667   -156457.93            0    984.67719     30.44306   -571.14436    -591.3192   -573.96542   -534.57556     40.11653    40.103072    48.145318 
   69100   -143418.07   -143441.44    23.364373    25.706342   -156450.84            0    979.17279    30.130797   -257.14507   -192.46584   -271.95832   -294.27356    40.126452    40.101641    48.122938 
   69200   -143417.95   -143441.59    23.638487    25.934898   -156478.67            0    990.08401    30.484296    12.551657    -20.18919    13.705667    56.918082    40.123741     40.10658    48.126996 
   69300   -143417.96   -143441.62    23.658043    25.660519   -156460.57            0     980.2089    30.509516    183.53092    194.04028      177.054    191.99669    40.107438    40.108864    48.129611 
   69400   -143418.04   -143441.67    23.631013    25.770008   -156473.71            0    985.78544    30.474658    274.49642    230.41203    301.99771    304.40084     40.10299    40.111963    48.135297 
   69500   -143418.17   -143441.75    23.578826    25.702087   -156480.09            0    988.36446    30.407358    328.58687    330.64884    334.41356     335.0041    40.096644    40.108227    48.148761 
   69600    -143418.3   -143441.42    23.119092     25.91638   -156461.12            0     979.2357    29.814483    371.32111    336.31349    397.36721    393.65744     40.10203      40.1094    48.129909 
   69700   -143418.34   -143441.58    23.235947    25.767398   -156483.46            0    989.71372    29.965179    374.13484    399.03298     377.8029    358.02014    40.117093    40.106135    48.126919 
   69800   -143418.41   -143441.49    23.075738    26.050646   -156471.06            0     984.1707    29.758572    345.53678    333.78044    347.39438    368.10692    40.123604    40.107833    48.111509 
   69900   -143418.48   -143441.67    23.190656    25.678565   -156467.71            0    982.77976    29.906771    281.49135    313.43429    272.00771    271.14694     40.11928    40.103763    48.122176 
   70000   -143418.51   -143442.21     23.69973    25.455877   -156480.47            0    989.13759    30.563276    189.06988    174.74521    216.63264    189.25246    40.110601    40.106458    48.138798 
   70100   -143418.59   -143441.57    22.982962     25.71084   -156458.75            0    980.28918    29.638929    46.609073     74.85792    28.655051    50.573393     40.10062    40.110031    48.139373 
   70200   -143418.62   -143441.76    23.130919    25.706832   -156467.64            0    986.13947    29.829734   -178.68157   -225.49262   -131.25669   -165.99094    40.097577    40.113516    48.149734 
   70300   -143418.68   -143441.83    23.149751    25.581951   -156461.23            0    985.12305     29.85402   -452.55075   -400.53282   -454.57224   -488.79226    40.106439    40.118265    48.137943 
   70400   -143418.77   -143441.27    22.498069    25.715274   -156440.86            0    978.02479    29.013608   -743.96138   -781.19296   -726.49256   -711.47169    40.122764    40.113278    48.122168 
   70500   -143418.76   -143441.99    23.229104    25.667634    -156464.2            0    989.73565    29.956354   -898.05505   -823.38288   -935.18279    -923.3751    40.129926    40.115638      48.1274 
   70600   -143418.73   -143441.93    23.198494     25.73338   -156436.93            0    976.33979    29.916879    -814.0744   -831.73809    -771.4495   -825.85348    40.124295    40.108943    48.125504 
   70700   -143418.68   -143441.56    22.875119    25.688682   -156456.32            0    983.33726    29.499854    -513.4944   -453.21165    -542.7897   -531.01889    40.110452    40.107858    48.144981 
   70800   -143418.52   -143441.89    23.367815    25.614732   -156470.11            0    988.20845    30.135236   -294.61394   -324.50096   -267.16923   -278.25437    40.102568    40.114437    48.147082 
   70900   -143418.33   -143441.72    23.393974    25.743703   -156448.73            0    977.19552    30.168972   -158.02823   -145.79771   -151.52897   -163.04473    40.091945    40.108209    48.152245 
   71000   -143418.15   -143442.02     23.86987    25.572462      -156476            0    988.81754    30.782689   -37.643711   -66.014976   -15.081044   -18.279362    40.106129    40.114615    48.138908 
   71100   -143418.05   -143441.58    23.523873    25.988219   -156465.15            0    983.30823     30.33649    68.665683    81.667969    51.334694    86.611815    40.118322    40.110806    48.119779 
   71200   -143418.02    -143441.7    23.680382    25.745012    -156463.2            0    981.65989    30.538324    178.27688    158.04993     196.2299    193.55633     40.12207    40.104627    48.117984 
   71300   -143418.07   -143441.56    23.493897    25.862409   -156485.17            0    991.07218    30.297832    268.57918    308.52889    221.11088    288.99284    40.120518    40.112324    48.120369 
   71400   -143418.24   -143441.58      23.3484    25.856118   -156457.13            0    977.51712    30.110199    356.42908    326.18981    383.83003    371.98875    40.104435    40.101512    48.134479 
   71500    -143418.5   -143441.76    23.258565    25.727619   -156485.79            0    990.02465    29.994347    458.46939    482.20202    439.48897    465.57159    40.095951    40.113227    48.142764 
   71600   -143418.77   -143442.03    23.255704    25.569104   -156480.35            0    986.43351    29.990658    560.87124    513.91986    593.32097    588.28708    40.096812    40.106564    48.144217 
   71700   -143418.93    -143442.1    23.163883    25.632052   -156463.76            0    978.59274    29.872245    589.94599    605.27585    578.21929    600.24097    40.101794    40.105934    48.128611 
   71800   -143418.95   -143442.05    23.103231    25.438977    -156493.6            0    993.26386    29.794028    478.31242    408.34353    538.00337     501.4738    40.121536    40.108186    48.121693 
   71900   -143418.89   -143441.96    23.068692    25.620038   -156460.61            0    979.65732    29.749486    256.27383    332.34456    202.35139    247.13684    40.114682    40.103149    48.124521 
   72000   -143418.83    -143441.7    22.875484    25.960523   -156466.66            0    984.68691    29.500325   -26.800082   -63.765247    17.627484   -20.876193    40.120058    40.106572    48.125566 
   72100   -143418.74   -143441.75    23.007444    25.821068   -156468.66            0    987.12446      29.6705   -245.74986   -192.74198   -271.07701   -259.75328    40.112151    40.111052    48.137829 
   72200   -143418.61   -143442.07     23.45936    25.447879   -156447.86            0    978.43058    30.253294   -388.92851   -385.96861   -372.54033   -395.52899    40.103665    40.111697    48.139678 
   72300   -143418.47   -143441.73    23.264242    25.658279   -156468.66            0    988.62847    30.001669   -478.76951   -458.29002   -483.38384   -482.73738    40.108058    40.119992    48.139668 
   72400   -143418.32   -143441.98    23.656416    25.482535    -156449.6            0    980.25246    30.507418   -526.54637    -561.9665   -464.50939   -539.61178    40.108978    40.112435     48.13776 
   72500   -143418.22   -143441.87    23.653586    25.669216   -156451.12            0    980.84088    30.503769   -519.39639   -503.97835   -536.30467    -504.4562    40.115172    40.114584    48.128945 
   72600   -143418.18   -143441.53    23.350838    26.034348   -156471.59            0    990.11501    30.113344   -456.81097   -490.84644   -416.53267   -449.90411     40.11821    40.109965    48.139801 
   72700    -143418.2   -143441.55    23.350799    25.663302    -156442.1            0    975.61099    30.113293   -333.16784   -319.13539   -344.29472   -322.54976    40.115877    40.108461    48.124524 
   72800   -143418.29   -143441.25    22.956531    25.894685   -156471.86            0    988.27388    29.604842   -181.34139   -191.77532   -173.75132   -165.77943    40.116734    40.110168    48.133728 
   72900   -143418.54   -143441.69     23.15119    25.938835   -156471.11            0     986.6358    29.855876   -22.930889   -3.1998908    -33.45011   -19.846998    40.107151    40.109964    48.139994 
   73000   -143418.95   -143442.12    23.169185    25.610962   -156456.88            0    978.66964    29.879082    151.28852    132.21083    184.54307     149.6607    40.105605    40.107978    48.130295 
   73100    -143419.2   -143441.68    22.481658    25.734472   -156486.82            0    991.23598    28.992444    301.17739    326.67203    299.57369    290.26136    40.105954    40.111227    48.139548 
   73200   -143419.23   -143442.11    22.881754    25.592825   -156466.11            0     981.0694     29.50841    414.65008    405.19651    420.28107    431.58455    40.102298    40.113895    48.124307 
   73300   -143419.13   -143442.19    23.059981    25.622405   -156476.85            0    985.35363    29.738252    482.19104    481.39901    496.22242    482.42268    40.105143    40.107497     48.13294 
   73400   -143418.97   -143441.99    23.028269    25.713055   -156487.54            0    990.28223    29.697356    510.18517    528.08121    503.02204    513.76588    40.107588    40.108376    48.133876 
   73500   -143418.74   -143441.75    23.006885    25.849575   -156461.11            0    978.16991    29.669779    505.33352     522.5813    497.70309    509.43346    40.105687    40.099612    48.132774 
   73600   -143418.52   -143441.91    23.390012     25.60713   -156491.53            0    992.68103    30.163862    430.23382    441.50122    453.76798    407.72254    40.106499    40.104447    48.144895 
   73700   -143418.38   -143442.05    23.669409    25.633381    -156465.8            0     981.7993    30.524173    296.24736    325.40122    282.45811     292.6003    40.109775     40.10698    48.127604 
   73800   -143418.33   -143441.26    22.927093    25.895694   -156461.23            0    981.33241    29.566879    90.567843    96.001287    99.077543    89.520048    40.108462    40.108828    48.131647 
   73900   -143418.26   -143441.49    23.223744    25.788862    -156480.3            0    991.70055    29.949442   -109.62078   -97.137421   -93.930136    -124.2997    40.109512    40.116232    48.136953 
   74000   -143418.24   -143441.92    23.680061    25.494986   -156443.19            0    975.64596    30.537911   -293.15406   -269.49669   -280.68254   -315.21837     40.10633    40.108623    48.135019 
   74100   -143418.31   -143441.51    23.195036    25.872184    -156464.7            0    986.81521     29.91242   -472.54779   -475.72863   -477.60759   -449.98584    40.114569    40.109652    48.142123 
   74200   -143418.46   -143441.57    23.108761    25.824588   -156460.14            0    985.70764     29.80116   -584.18582   -588.84855   -567.21442   -583.16305    40.120333    40.112106    48.132295 
   74300   -143418.65   -143441.84    23.191868    25.539505   -156442.59            0    977.60831    29.908335   -601.12968    -594.9358   -616.20624   -578.54312    40.114325    40.107534    48.135683 
   74400   -143418.86    -143441.9    23.040808    25.537525   -156469.18            0    989.12815    29.713527   -510.10254   -522.36524   -516.39727   -477.63806    40.117709    40.118538    48.130194 
   74500   -143419.05   -143442.09    23.049304    25.490331   -156449.41            0    978.91737    29.724483   -356.60515   -364.54238    -362.1187   -330.20528    40.106188    40.111735    48.136255 
   74600   -143419.17   -143442.27    23.095079    25.523372   -156463.73            0    984.23202    29.783515   -200.94234   -197.91866    -204.6422   -187.39148    40.103712    40.114491    48.139334 
   74700   -143419.21   -143442.19    22.977804    25.478947   -156470.27            0    986.24688    29.632277    -70.61654   -67.487394    -89.53257   -42.026901    40.109457    40.112239    48.135126 
   74800   -143419.08   -143442.14    23.065782    25.257631   -156455.88            0    978.95533    29.745734    28.303433    33.497186    26.204394     37.74458    40.108827     40.10511    48.133443 
   74900   -143418.69   -143441.78    23.097344    25.774269   -156480.45            0    990.05463    29.786436    93.624495    106.34233    78.069032    109.79564    40.114732    40.115102    48.126213 
   75000   -143418.31   -143441.37    23.064707    25.963249   -156466.71            0    983.69348    29.744348    143.16312    146.47242    151.79227     144.2893    40.110947     40.10821    48.129736 
   75100   -143418.18   -143441.78    23.604651    25.697461   -156466.38            0    982.84943    30.440661    183.43527    194.03425    188.15866    182.02018    40.107579    40.113527    48.126885 
   75200   -143418.16    -143441.7    23.536179    25.714853   -156482.47            0     990.2888    30.352359    212.57218    234.20524    223.95188    192.89508     40.10621    40.108334    48.142153 
   75300   -143418.19   -143441.68    23.491917    25.847521    -156459.8            0    979.41226     30.29528    263.77555    300.89397    264.05674    238.88939    40.098332    40.104262    48.142643 
   75400   -143418.27   -143441.76    23.495729    25.453295    -156478.9            0    987.57793    30.300195    317.50265    326.91512    333.64422    304.49832    40.111834    40.104814    48.135087 
   75500   -143418.42   -143441.23    22.811206    25.959622   -156474.28            0      985.761    29.417431    327.43916    351.19711    319.42489    324.94571    40.109677    40.106555    48.132312 
   75600   -143418.56   -143441.95    23.386017    25.702717   -156463.46            0    981.33457    30.158709    229.69454    214.96256    238.27731    248.54466    40.113517    40.111777    48.117577 
   75700   -143418.75   -143441.99    23.242109    25.598746   -156478.23            0    989.45962    29.973125    28.723004    5.9049269    39.196642    53.872616    40.115366    40.118224    48.122158 
   75800   -143418.88   -143441.54    22.665016    25.694355   -156453.96            0    980.15792    29.228904   -205.75979   -208.41117   -184.92303   -210.72384    40.106908    40.117041    48.127437 
   75900   -143418.87   -143442.02    23.146152    25.441924   -156459.11            0    984.08008    29.849379   -448.36395   -444.36756   -440.96226   -446.58292    40.107263    40.114085    48.140277 
   76000   -143418.85   -143442.05    23.199079    25.486868   -156460.47            0    985.73906    29.917634   -586.51771   -577.61559   -537.22998   -631.18259    40.106517    40.103166    48.159249 
   76100   -143418.79   -143441.89    23.108079    25.595123   -156443.45            0    977.82405     29.80028   -597.92076   -584.87141   -595.79215   -599.74279    40.113326    40.103202    48.142635 
   76200    -143418.6   -143441.64    23.036945    25.625745   -156464.03            0    986.76605    29.708545   -510.08356   -485.10603   -517.02021   -515.04067    40.114767    40.108748    48.143213 
   76300    -143418.3    -143441.5    23.196171    25.813866   -156457.13            0    983.07829    29.913883    -378.5138   -392.82455   -380.26797   -349.91723    40.115007    40.117781    48.123421 
   76400   -143418.06   -143441.47     23.41131    25.738811   -156459.18            0    982.88046    30.191328   -252.98355   -250.68442   -261.42203   -234.64635    40.111771    40.119696    48.123485 
   76500   -143417.97   -143441.42    23.450727    25.983977    -156467.1            0    986.00525     30.24216   -159.83707    -182.0136   -155.77491   -128.52229    40.107316    40.116446    48.134087 
   76600   -143417.99   -143441.31    23.321818    26.014939   -156458.09            0    981.24946    30.075918   -63.750831   -66.256949    -70.74793   -41.004162    40.106008     40.10806    48.137605 
   76700   -143418.06   -143441.43    23.367911    25.865991   -156476.22            0    988.64605    30.135361    25.525612    35.162682    24.092639    31.039825    40.108927    40.099409    48.152605 
   76800   -143418.16   -143441.68    23.519913    25.385919   -156466.02            0    983.41321    30.331383     110.1642    135.61391    89.809523     118.8175     40.11243    40.101709    48.136657 
   76900   -143418.27   -143441.52    23.242825    25.912958   -156466.45            0    983.11949    29.974049    194.61351    185.48543    205.37119    205.55268    40.113713    40.102035    48.132455 
   77000   -143418.38   -143441.87    23.491487    25.782823   -156482.06            0    989.69311    30.294724    261.26789    279.92624    233.70615    283.35581    40.113359    40.117054    48.121236 
   77100   -143418.51   -143442.05    23.538481    25.492956   -156463.75            0    980.79558    30.355328    321.60107    291.86606    331.68313    354.45092    40.110266    40.116291    48.113261 
   77200   -143418.61   -143441.86    23.244006    25.613011   -156475.28            0     985.7622    29.975572    339.80845    342.28596    326.46225    363.74774    40.100266    40.117354    48.131018 
   77300   -143418.66   -143441.72    23.060402    25.738239   -156479.55            0    988.37772    29.738795    303.15416    278.21984    331.66293    313.00652    40.106197    40.108393    48.137074 
   77400   -143418.67      -143442    23.322637    25.574612    -156461.7            0     980.3873    30.076974    230.23066    270.21868    210.27556    223.18622    40.107038    40.098269    48.140911 
   77500   -143418.68   -143442.14    23.455366    25.548713      -156479            0    988.92815    30.248142    119.13996    114.33475    156.43317    100.22637    40.115876    40.103753    48.137199 
   77600   -143418.68   -143441.65    22.974711    25.660092   -156460.34            0    981.80169    29.628288   -21.524187    22.189721   -57.463231   -15.783783    40.114951    40.107011    48.127686 
   77700   -143418.61   -143442.01    23.399157    25.553306    -156463.9            0    984.64015    30.175656   -213.36632   -224.98592   -182.26184   -219.66036    40.112941    40.113363     48.13005 
   77800   -143418.59    -143441.6    23.011917    25.711302    -156465.1            0    986.75517    29.676269   -423.25223   -410.04347   -441.98687   -404.33139    40.113219    40.118636    48.130917 
   77900   -143418.55   -143441.65    23.103891    25.593375   -156440.61            0    976.93397     29.79488   -595.05549   -666.11712   -523.91601   -581.99871    40.101572    40.106957    48.149703 
   78000   -143418.49      -143442    23.511284     25.48157   -156463.02            0    987.80686    30.320255   -710.61445   -682.48545   -740.63268   -696.25818    40.111269    40.112173    48.148107 
   78100   -143418.51   -143441.39    22.886271    25.907035   -156450.14            0    982.73882    29.514235   -782.80842   -844.01437   -703.29481   -787.96242    40.116953    40.106598    48.142748 
   78200   -143418.48   -143441.98    23.497935    25.399956   -156437.32            0    976.45995     30.30304   -796.70462    -723.7908    -863.9938    -789.5218    40.114286    40.110629    48.135096 
   78300   -143418.48   -143442.06    23.586416    25.439561   -156469.84            0    990.45289    30.417145   -650.23126   -666.93959   -626.48543   -644.11635    40.121649    40.116754    48.132308 
   78400   -143418.51   -143441.61    23.093213    25.721088   -156452.36            0    980.76446    29.781109   -375.65897    -298.8473   -440.32472   -374.98071    40.107571    40.116811    48.130751 
   78500   -143418.51    -143441.9    23.382166    25.612084   -156459.22            0    981.53511    30.153744   -86.771045   -134.07591     -50.9959   -62.640495     40.10691    40.119023    48.124376 
   78600   -143418.56    -143441.9    23.347013    25.520552   -156482.19            0    990.94242    30.108411    113.50524    145.13333    70.655967     137.8681    40.103242    40.112941    48.142045 
   78700    -143418.6   -143441.87    23.274248    25.688796   -156460.84            0    980.08847    30.014572    236.18002     177.9359    284.98611    258.52189    40.106792    40.104277    48.133058 
   78800   -143418.63   -143441.96    23.335592    25.636845   -156480.11            0    988.27385    30.093682    293.19697    294.11214    287.99092    310.86153    40.115485    40.101113    48.136105 
   78900   -143418.67   -143442.21    23.531024    25.565232   -156474.22            0    985.42531    30.345712    317.05321    296.76031    346.31496    321.61842    40.108974    40.104008    48.136153 
   79000   -143418.72   -143442.32    23.599412    25.419083    -156466.6            0     981.9447    30.433906    302.84557    334.54662    282.64314    304.45418    40.109169    40.106114     48.12965 
   79100   -143418.78   -143441.83    23.049315    25.828249   -156484.36            0    990.61159    29.724497    272.21378    265.99041    297.51564    266.07281    40.107095    40.111541    48.136149 
   79200   -143418.79    -143441.7    22.912953    25.890942   -156463.55            0    981.49651    29.548645    221.33202    247.63905    200.27929    229.49365     40.10082    40.114491    48.129844 
   79300   -143418.75      -143442    23.240847    25.656231   -156470.09            0    984.85886    29.971498    140.25246     109.4122    164.39005    160.37527    40.105437    40.111275    48.134737 
   79400    -143418.7    -143441.9    23.194999     25.62022   -156474.68            0    988.02781    29.912372    43.910516    46.961796     38.27169    59.320112    40.111506    40.108399    48.135474 
   79500   -143418.57   -143442.04    23.475825    25.279329   -156453.86            0    979.04925    30.274526   -84.973741   -119.44921   -55.576279   -67.282579    40.118631    40.102668    48.126757 
   79600   -143418.44   -143441.36    22.920262    25.846411    -156471.7            0    989.05858     29.55807   -306.80451   -247.75381   -341.20862   -318.48342    40.115401     40.11126     48.13766 
   79700   -143418.27   -143441.66    23.397896    25.687782   -156450.36            0    981.31628     30.17403   -571.44786   -583.83588   -515.52527   -601.61834    40.116583    40.116101    48.125567 
   79800   -143418.15   -143441.91      23.7644    25.499118   -156446.97            0    980.96111    30.646674    -796.1237   -732.85882    -853.5315   -788.03044    40.108609    40.121052    48.134824 
   79900    -143418.1   -143441.35    23.256925     25.78221    -156459.5            0    987.44952    29.992232   -858.86097   -881.85196   -824.05162   -857.31296    40.109499    40.119824    48.144285 
   80000   -143417.99   -143442.25    24.264396    25.496598   -156436.42            0    975.97293    31.291471   -761.54095   -743.08739   -790.85764   -737.76795    40.107766    40.108278    48.143564 
Loop time of 71145.4 on 8 procs for 30000 steps with 12000 atoms

Performance: 0.015 ns/day, 1646.883 hours/ns, 0.422 timesteps/s
20.2% CPU use with 8 MPI tasks x no OpenMP threads

MPI task timing breakdown:
Section |  min time  |  avg time  |  max time  |%varavg| %total
---------------------------------------------------------------
Pair    | 60537      | 61699      | 62419      | 215.3 | 86.72
Bond    | 4.7811     | 5.1657     | 5.5012     |  10.1 |  0.01
Neigh   | 0          | 0          | 0          |   0.0 |  0.00
Comm    | 8586.9     | 9306.1     | 10469      | 554.3 | 13.08
Output  | 1.9522     | 1.9813     | 2.051      |   2.1 |  0.00
Modify  | 112.14     | 112.98     | 113.69     |   5.4 |  0.16
Other   |            | 19.74      |            |       |  0.03

Nlocal:    1500 ave 1511 max 1483 min
Histogram: 1 0 0 1 1 0 2 0 2 1
Nghost:    24374 ave 24391 max 24363 min
Histogram: 1 2 0 2 0 1 1 0 0 1
Neighs:    2.17983e+06 ave 2.19613e+06 max 2.15498e+06 min
Histogram: 1 0 0 2 0 1 1 0 1 2

Total # of neighbors = 17438633
Ave neighs/atom = 1453.22
Ave special neighs/atom = 1
Neighbor list builds = 0
Dangerous builds = 0
unfix NPT
variable STEP equal step
velocity all scale 55 temp CSequ
fix NPT all npt temp 55 55 0.100000 tri 1. 1. 0.100000
fix_modify NPT temp CSequ
run 10000
Memory usage per processor = 21.0006 Mbytes
Step TotEng PotEng KinEng Fnorm E_coul E_long E_bond Temp Press Pxx Pyy Pzz Lx Ly Lz 
   80000    -143399.6   -143442.25    42.648736    25.496598   -156436.42            0    975.97293    54.999997    -507.9893     -484.588   -533.86411    -482.0099    40.107766    40.108278    48.143564 
   80100    -143398.8   -143433.29     34.49539     30.22108   -156471.71            0    987.39815    44.485405    448.87217     403.7864    476.82384    485.06202    40.114505    40.099003     48.14639 
   80200    -143397.6   -143429.59     31.98933    31.512001   -156460.06            0     985.9374    41.253579    175.37016     179.0159    188.00762    176.70374    40.120883    40.103292    48.135955 
   80300   -143396.07   -143431.66    35.590811    30.730501   -156445.74            0    985.74658    45.898066   -599.50162   -566.08438   -644.71591   -569.46786    40.115014    40.114115    48.139797 
   80400   -143394.51   -143428.07     33.55879    32.166745   -156475.87            0    991.11357    43.277563    676.62823    695.60938    691.21522     661.7547    40.107103      40.1307     48.11351 
   80500   -143392.82   -143429.43    36.613015    31.606302   -156445.06            0    985.20917    47.216305   -387.19046   -396.48222   -401.69242   -344.45906    40.104029    40.134482    48.124321 
   80600   -143391.12   -143428.62    37.499707    31.905152   -156441.51            0    987.01573    48.359787   -832.37862   -876.16416   -903.16059   -694.47587    40.107527    40.134481    48.133299 
   80700    -143389.4   -143427.35    37.949416    32.619404   -156480.56            0    987.06666    48.939733    1578.9214    1567.7195    1663.2431    1527.0021    40.106997    40.097103    48.133464 
   80800   -143387.68   -143426.01    38.324173    32.982475   -156440.05            0    988.03267    49.423021   -943.52517   -895.67709    -993.0989   -921.78589    40.121707    40.098176    48.166514 
   80900   -143386.05   -143424.01     37.95925    34.102273   -156447.77            0    984.84694    48.952415    2.3930618    23.408823   -15.578828    22.491048    40.121005    40.090766    48.156293 
   81000   -143384.42   -143424.54    40.119879     33.75305   -156458.88            0    985.98297    51.738771    607.04935    566.36008    640.67686    635.23786    40.117151    40.094747    48.143058 
   81100   -143382.95   -143423.68       40.732    33.957419   -156454.48            0    993.22503    52.528166   -547.90494     -560.883   -568.85457   -493.35571    40.120983    40.129677    48.128624 
   81200   -143381.57   -143423.04    41.465454    34.340182   -156448.78            0    985.32602    53.474031    208.57098     215.8071    214.69177    215.17328    40.106504    40.139414    48.109745 
   81300   -143380.33   -143423.09    42.750741    34.248027   -156452.44            0    987.71303    55.131542    170.53862    204.87639    187.08828    140.70213    40.098569    40.133663    48.128645 
   81400    -143379.3   -143421.53    42.229605    34.493577    -156451.6            0    993.47252    54.459483   -584.82761   -595.27964   -580.00405   -555.77944    40.120483    40.115945    48.147653 
   81500   -143378.34   -143422.19    43.841873    34.483865   -156445.38            0     982.6104    56.538672    455.80374    445.29255    488.13501    457.14901    40.113153    40.077254    48.168822 
   81600   -143377.69   -143422.09    44.392446    34.787645   -156453.12            0    989.41549    57.248692    -16.88802   -23.381594    2.4060234   -5.3408212    40.130066    40.078435    48.166685 
   81700   -143377.47   -143420.69      43.2163    34.983348   -156432.74            0    983.85111     55.73193   -451.51066    -437.8508   -435.14626   -457.95593    40.130988    40.092412    48.150978 
   81800   -143377.48   -143420.53    43.047321    35.056356   -156469.09            0    990.43851    55.514013    925.59045    950.06096    932.61975     917.5201    40.116422    40.112406    48.124106 
   81900   -143377.84   -143420.57    42.738589    35.088063   -156445.56            0    991.09836    55.115872   -621.60882   -701.07738   -548.46227   -590.73718     40.11468    40.144666    48.119704 
   82000   -143378.39   -143421.14    42.751872    34.625604   -156424.57            0    980.76301    55.133002   -467.03238   -416.29785    -553.5491   -410.05385    40.096067     40.13633    48.132736 
   82100   -143379.03   -143422.32    43.291717    34.589159   -156491.27            0    996.77845    55.829188    1368.6028    1368.5558    1418.9442    1340.4349    40.094992    40.118341    48.140407 
   82200   -143379.78   -143422.07    42.294605    34.717898    -156429.3            0    987.44118    54.543307   -1138.8309   -1115.4807   -1106.7479   -1169.7695    40.106108    40.105009    48.180127 
   82300   -143380.33   -143423.74    43.413784    33.919158   -156436.47            0    980.46196    55.986606    118.83499    152.13954    86.297084    141.96893    40.107817    40.093606    48.158212 
   82400   -143380.69   -143422.62     41.93601    34.533782   -156479.11            0    998.34803    54.080862    343.43398    316.86042    381.72641    353.88564    40.126797    40.102429    48.144044 
   82500   -143380.89   -143421.96    41.069546    34.568045   -156428.76            0    981.27301    52.963466    -447.2003   -431.63845   -464.21657   -423.26588    40.123121    40.117506     48.12564 
   82600   -143380.89   -143422.85    41.959694    34.300193   -156459.31            0    988.83094    54.111405     349.3474    357.25945    366.39017    345.32942    40.119579     40.12825     48.11102 
   82700    -143380.7   -143422.49    41.784237     34.41792   -156461.25            0    991.81925    53.885135    95.583411      129.253    97.893976    82.438054    40.113068    40.128624    48.127095 
   82800   -143380.27      -143423    42.733837    34.235818   -156428.23            0    981.64278    55.109743   -465.54403   -473.94154    -470.6558   -428.08573    40.110396    40.117672    48.138309 
   82900   -143379.78   -143422.93    43.150309    34.222772   -156474.53            0    995.67425    55.646827    470.28722    495.37396    437.70534    501.66854    40.104436    40.100362    48.166082 
   83000   -143379.27   -143422.08    42.810252    34.377992   -156431.48            0    981.82385    55.208288   -279.17823   -274.64302   -254.13731   -286.09657    40.109951     40.09153    48.168692 
   83100   -143378.74   -143421.84    43.094835    34.661327   -156439.17            0    986.83359    55.575288   -451.20367   -471.75622   -433.57519   -425.75082     40.12471    40.103353    48.146033 
   83200   -143378.39   -143420.89    42.495301    35.236638   -156482.56            0     996.0153    54.802127    970.76596     1049.284    906.07681    981.13974    40.114276    40.114335    48.130266 
   83300   -143378.19    -143421.5    43.304718    34.745693   -156416.17            0    979.62418    55.845953   -899.36639   -956.96317   -830.20731    -888.4909    40.126798    40.134738     48.10706 
   83400   -143378.16   -143421.51    43.345065    34.617486   -156463.04            0    994.26852    55.897986    -17.02181    3.7620758   -56.993735    23.483641    40.121688    40.136224    48.112544 
   83500   -143378.38   -143421.99    43.617188    34.560553   -156468.82            0    988.58931    56.248916    1035.9221    1053.2284    1024.2769    1052.9554    40.106324    40.119069    48.125092 
   83600   -143378.73   -143422.88     44.14942    34.313537   -156425.74            0    983.62581    56.935286   -865.46487   -886.89332   -808.10364   -879.06839    40.103158    40.108947    48.168084 
   83700    -143379.3   -143421.95    42.652276     34.52098   -156465.39            0    993.48872    55.004563    187.29077    206.83654    184.42888      193.252    40.098071     40.09405    48.186621 
   83800   -143379.75   -143421.65      41.8974    34.726594   -156442.06            0    983.77696     54.03107    113.56704    112.04584    116.38401    134.14965    40.106387     40.10202    48.154765 
   83900   -143380.05   -143422.47    42.417629    34.534822   -156446.98            0    989.84694     54.70196   -401.43859   -393.58866   -384.31896     -403.188    40.111151    40.115011    48.149607 
   84000   -143380.36   -143422.84    42.481686    34.408926   -156459.53            0    989.71591    54.784568    288.97946    285.16156     291.5509    314.30993    40.124168     40.12809      48.1071 
   84100   -143380.51   -143423.26    42.752764    34.019042   -156440.27            0    983.27676    55.134151   -16.230057   -15.397634    19.251391   -29.397759    40.124918    40.120959    48.111245 
   84200   -143380.52   -143422.79    42.271014    34.037853   -156462.44            0     995.1376    54.512884   -273.82427   -277.69008   -262.49989   -257.96042    40.120434    40.119061    48.140487 
   84300   -143380.39   -143421.87    41.480032    34.485618   -156449.55            0    983.25482    53.492831    519.24283    566.93041    505.33042    508.08664    40.108322    40.095408    48.154927 
   84400   -143380.03   -143422.51     42.47958     34.34812   -156446.14            0    988.44063    54.781853   -322.26434    -291.3879   -309.76609    -342.9344    40.103926    40.096037    48.180026 
   84500   -143379.62   -143422.08    42.465315    34.597362   -156451.38            0    990.74209    54.763457   -266.65924   -311.70961   -198.63092   -269.22178    40.112985    40.105152     48.15962 
   84600   -143379.22   -143421.91    42.690112    34.733041   -156451.71            0    982.02585    55.053355    934.38378    984.54655    912.40366      928.674    40.102492    40.107723     48.13426 
   84700   -143378.89   -143421.78    42.891819    34.796314   -156443.83            0    993.75032    55.313478   -1068.3542   -1046.3575   -1074.7021   -1060.1822    40.132486    40.133491    48.120554 
   84800   -143378.65   -143421.99    43.336725    34.559226   -156446.38            0    984.97397     55.88723    199.00318    199.36113    220.34491    198.51872    40.130052    40.121193    48.104123 
   84900    -143378.5    -143421.7    43.199523    34.699351   -156462.17            0    988.47688    55.710294    689.61784    707.85968    660.12761    721.79656     40.11411     40.11327    48.128106 
   85000   -143378.49   -143421.16    42.665923    34.865763   -156445.09            0    992.62276    55.022161   -882.74583   -922.68972   -817.50654     -886.353    40.123229    40.110401    48.157014 
   85100   -143378.65   -143422.34    43.688624    34.540302   -156436.06            0    977.21028    56.341041    554.42085    551.84464    548.96602    585.71462    40.091299     40.08875    48.173751 
   85200   -143378.96   -143422.11    43.150363    34.259328    -156471.9            0    996.63609    55.646897    153.94603    208.39828    108.88238    169.50263    40.102189    40.102716    48.176297 
   85300   -143379.26   -143422.36    43.098422    34.433049   -156437.62            0    987.08802    55.579913   -638.47648   -636.87751    -595.7951   -659.53866    40.109826    40.113995    48.155822 
   85400    -143379.6   -143422.62    43.023573    34.445795   -156446.53            0    981.31245    55.483388    630.92736     589.6802    653.68353    672.38623    40.120608    40.116841    48.107989 
   85500   -143379.94   -143422.09    42.140521    34.556564   -156469.17            0    998.79009    54.344601   -253.38576   -222.43694   -276.57688   -237.90192    40.136793    40.139396    48.099341 
   85600   -143380.15   -143421.96    41.803597    34.648162   -156422.82            0    978.31598    53.910102   -379.30423   -373.78283   -353.73778   -389.79877    40.122187    40.121067    48.116514 
   85700   -143380.31   -143422.69    42.381373    34.201565   -156466.46            0    990.14285    54.655204     672.1444    672.43997    671.93273    692.26788    40.118523    40.112614    48.124973 
   85800   -143380.39   -143422.47    42.077878    34.141605   -156458.16            0    995.01993    54.263816   -481.62729   -464.28833   -435.29258   -522.90696    40.108223    40.105811    48.174719 
   85900   -143380.28   -143422.64     42.35616    34.392727   -156419.83            0    973.58818    54.622689   -13.427124   -19.589963    15.994254   -13.579396    40.092252     40.10311    48.163126 
   86000   -143379.96   -143422.93    42.968438    34.121897   -156489.76            0    1001.2013    55.412286    585.33939    599.58913    569.02786    610.60476    40.104922    40.111777    48.158328 
   86100   -143379.57   -143422.35    42.777812    34.363865   -156421.95            0    981.03818    55.166454   -791.93005   -748.27066   -776.18818   -828.73685    40.115077    40.117693    48.140322 
   86200   -143379.25   -143421.86    42.608544    34.611292   -156444.72            0    982.93069    54.948165    374.70548    357.19249    396.96417    391.60373    40.125115    40.117714    48.107484 
   86300   -143378.97   -143421.95    42.983522    34.432665   -156485.44            0    1001.6431    55.431738    377.80545    392.60451    388.84704    374.95274     40.13046    40.116445    48.125235 
   86400   -143378.74   -143421.27    42.529192     34.76241   -156400.07            0    974.00115    54.845833    -1135.548   -1089.9218   -1144.7669    -1149.239    40.127957    40.114833    48.127612 
   86500   -143378.65   -143421.74    43.088021    34.680924   -156483.74            0    996.46717      55.5665    940.58288    909.12936    964.33807    970.60164    40.108519    40.105968    48.148309 
   86600    -143378.7   -143422.24    43.537038    34.256862   -156456.74            0    991.69025    56.145555   -77.274427   -73.504941   -82.573029   -53.174371    40.102008    40.112015    48.162551 
   86700   -143378.79   -143421.71    42.922591    34.904035   -156412.31            0       974.99    55.353161   -544.98672   -527.31477   -530.06477   -555.98845    40.110526    40.109914    48.143541 
   86800   -143378.95   -143421.71    42.752191    35.019273   -156487.45            0    1000.6961    55.133412    573.54007    583.71784    574.61912    585.24888    40.116379    40.113422    48.143015 
   86900    -143379.3   -143421.58    42.288471    34.792791   -156432.86            0    982.35711    54.535398   -260.41755   -257.20582   -282.95118   -217.73132    40.121747    40.117101    48.124154 
   87000    -143379.6   -143421.74    42.132196    34.510438   -156439.54            0    984.19675    54.333865   -132.97876    -114.3301   -111.58643   -151.58001    40.114654    40.114605    48.136111 
   87100   -143379.84   -143421.89      42.0505     34.65283   -156479.68            0    999.51071    54.228509    279.69257    279.22712    291.41924    291.56552    40.112046    40.124328    48.138157 
   87200   -143380.08   -143422.32    42.249637    34.354327   -156421.71            0     977.9034    54.485317   -340.12675   -308.06281   -349.97897   -339.20654    40.100996    40.119227    48.140589 
   87300   -143380.24   -143423.43    43.185052    33.856019   -156455.99            0    989.64284    55.691633    68.625896    107.21245    65.833594     55.27285    40.102139     40.11155    48.157325 
   87400   -143380.29   -143422.71    42.420254    34.221636   -156466.43            0    993.34319    54.705345    239.66937    232.10453    241.98677    267.51738    40.117831     40.11182    48.139536 
   87500   -143380.11   -143422.38    42.270805    34.582393   -156417.07            0    976.36723    54.512615    -496.8698     -505.078   -454.50673   -509.03294    40.113024    40.103341    48.148936 
   87600   -143379.85   -143422.08    42.227082    34.678469   -156482.33            0    998.01339     54.45623    573.77235    642.55514    566.95523    534.61613     40.11951    40.116443    48.132428 
   87700   -143379.58   -143422.24    42.662402    34.506871   -156446.35            0     984.8929     55.01762    177.43347     173.9948    153.66359     228.4379     40.12215    40.109428     48.12787 
   87800   -143379.24   -143422.77    43.527351     34.25262   -156413.04            0    980.17598    56.133063    -1222.471   -1191.3906   -1216.2408   -1236.3967    40.119107    40.116029    48.144906 
   87900   -143379.01   -143421.96    42.941732     34.81657   -156502.52            0    1003.5625    55.377845    1167.1925    1144.5488    1185.9929    1193.9587    40.111231    40.110923     48.14156 
   88000   -143378.84   -143421.86      43.0285    34.549794   -156420.25            0    977.53739    55.489743   -392.02797   -393.90488   -374.22163   -385.08148    40.106932    40.106159    48.152074 
   88100   -143378.74   -143421.72    42.983312    34.726621   -156448.86            0    990.75179    55.431468   -421.82609   -344.36729    -441.9274   -455.98627    40.122968    40.117209    48.137291 
   88200   -143378.79   -143421.81    43.023029    34.834221   -156469.84            0    992.13806    55.482687    647.94743    626.89224    651.75421    689.76839    40.121181    40.106554    48.133129 
   88300   -143378.91    -143422.1    43.192267    34.252454   -156421.48            0    977.79047    55.700937   -412.71075    -427.3589    -385.9033    -401.3205    40.123457    40.115937    48.122605 
   88400   -143379.09    -143421.8    42.703669    34.539926   -156473.54            0    998.86973    55.070838    12.642489    8.8042968    30.423223    21.661662    40.124069    40.127552    48.123955 
   88500   -143379.36   -143422.02    42.661499    34.527727   -156446.01            0    983.48761    55.016456    362.53563    398.63308    369.83299    340.32341    40.099023    40.120085     48.13753 
   88600   -143379.65   -143422.41    42.769199    34.473816   -156437.59            0    985.10713    55.155346   -427.94707   -411.14639   -430.81158   -420.51345    40.103205    40.123867    48.146769 
   88700   -143379.92   -143422.76    42.845061    34.604427   -156474.09            0    997.49642    55.253178     181.8342     173.2454    190.27475    205.19824    40.100437    40.115455    48.161174 
   88800   -143380.13   -143422.27    42.142948    34.552022   -156430.52            0    977.63664     54.34773    159.85761    146.31945    184.47928    172.12476    40.100957    40.109042    48.145592 
   88900   -143380.22   -143422.34    42.117931    34.455479   -156451.25            0    992.64787    54.315469    -561.4367   -545.97403   -564.98121   -549.31571     40.11206    40.117147    48.154604 
   89000   -143380.17   -143422.91    42.736929     34.29986   -156465.03            0    989.40325    55.113731    670.40018    740.21683      653.083    641.21329    40.112151    40.109702    48.134941 
   89100   -143380.03   -143422.09    42.059115    34.839087   -156429.75            0    979.35662    54.239618   -128.10227   -169.66766   -88.193093   -105.81687    40.131704    40.113741    48.111386 
   89200   -143379.75   -143422.12    42.366829    34.350174    -156448.7            0    994.16428    54.636448   -897.98388   -932.58844   -858.19103   -881.14814    40.133492    40.118658    48.135614 
   89300   -143379.28   -143422.14    42.856744    34.754431    -156466.4            0    985.10731    55.268244    1322.0351    1370.7394     1297.918    1320.7455    40.109492    40.107768    48.124525 
   89400   -143378.84    -143421.7      42.8594    34.816206   -156432.33            0    984.57165     55.27167    -642.0982   -630.89547   -666.76811   -605.10246    40.103995    40.111443    48.165106 
   89500   -143378.64    -143421.6    42.963619    34.699037   -156460.56            0     995.2007    55.406071   -228.91861   -209.02299   -212.65806   -241.02245    40.089515     40.12011    48.173312 
   89600   -143378.59   -143421.41    42.818599    34.829731   -156448.43            0    982.87403    55.219053    587.89318    593.61361    598.43418    595.36586    40.089393    40.118173    48.147818 
   89700   -143378.66   -143421.61    42.953378    34.934152   -156444.23            0    989.47891    55.392865    -524.7816   -516.22925   -524.26541   -512.29839    40.114194    40.131317    48.131384 
   89800   -143378.91    -143421.5      42.5921    34.655482   -156455.77            0    990.03505    54.926958    126.34476    128.07322    115.20317    159.55151    40.133543    40.127946    48.099101 
   89900    -143379.1   -143421.57    42.463476    34.813315   -156446.36            0    983.94189    54.761084    295.63297    313.94706    296.94955    298.26244    40.125293    40.112817    48.118543 
   90000   -143379.24   -143422.15    42.908695    34.709771   -156453.97            0    993.76822    55.335241   -492.43457   -514.40804   -479.34171   -461.59272    40.126666    40.114493     48.13925 
Loop time of 23777.6 on 8 procs for 10000 steps with 12000 atoms

Performance: 0.015 ns/day, 1651.223 hours/ns, 0.421 timesteps/s
20.2% CPU use with 8 MPI tasks x no OpenMP threads

MPI task timing breakdown:
Section |  min time  |  avg time  |  max time  |%varavg| %total
---------------------------------------------------------------
Pair    | 19462      | 20483      | 20980      | 319.2 | 86.15
Bond    | 1.5785     | 1.7275     | 1.9428     |   9.6 |  0.01
Neigh   | 0          | 0          | 0          |   0.0 |  0.00
Comm    | 2762       | 3258.6     | 4280.1     | 800.5 | 13.70
Output  | 0.5897     | 0.5934     | 0.60045    |   0.4 |  0.00
Modify  | 26.61      | 26.82      | 27.174     |   4.2 |  0.11
Other   |            | 6.53       |            |       |  0.03

Nlocal:    1500 ave 1514 max 1489 min
Histogram: 1 1 1 1 2 0 0 0 0 2
Nghost:    24374 ave 24385 max 24360 min
Histogram: 2 0 0 0 0 2 1 0 2 1
Neighs:    2.17897e+06 ave 2.20028e+06 max 2.16502e+06 min
Histogram: 1 1 2 2 0 0 0 1 0 1

Total # of neighbors = 17431762
Ave neighs/atom = 1452.65
Ave special neighs/atom = 1
Neighbor list builds = 0
Dangerous builds = 0
unfix NPT
fix NPT all npt temp 55 55 0.100000 tri 1. 1. 0.100000
fix_modify NPT temp CSequ
run 30000
Memory usage per processor = 21.0006 Mbytes
Step TotEng PotEng KinEng Fnorm E_coul E_long E_bond Temp Press Pxx Pyy Pzz Lx Ly Lz 
   90000   -143379.24   -143422.15    42.908556    34.709771   -156453.97            0    993.76822    55.335062   -492.43649   -514.20145    -479.2268   -461.36369    40.126666    40.114493     48.13925 
   90100   -143379.31   -143422.48     43.17444    34.412399   -156440.83            0    980.52101    55.677947    354.98868    418.56623    402.98354    267.03495    40.103463     40.09697     48.15891 
   90200   -143379.43   -143422.37    42.942405    34.463328    -156457.8            0    990.74128    55.378713    75.382571    75.852794    40.784721    132.27747    40.089508    40.112625    48.173052 
   90300   -143379.56   -143421.91    42.345864     34.53672   -156448.58            0    991.70686    54.609412    -531.0884   -534.87428   -494.44792   -542.10468     40.10453    40.120152    48.156669 
   90400   -143379.79   -143422.13    42.335528    34.713962   -156443.34            0    979.22804    54.596082     698.3634    691.51277    704.71231    720.24152    40.102401    40.114783    48.129897 
   90500   -143380.14   -143421.84    41.705289    34.727982   -156462.81            0    997.19729    53.783324   -394.20366   -376.43979   -387.63373   -396.52131     40.13019    40.128426    48.120539 
   90600   -143380.43   -143422.67    42.237579     34.43652   -156429.12            0    984.03186    54.469767   -764.62109   -721.42309   -706.78056   -843.62241    40.127615    40.116375    48.129597 
   90700   -143380.69      -143423    42.304495    34.404607   -156467.36            0    983.54113    54.556061    1523.1294     1595.515    1496.6324    1500.0522     40.10807    40.097836    48.132313 
   90800   -143380.96   -143422.43    41.465869    34.626524   -156451.97            0    996.16248    53.474566   -952.22404   -1041.3465   -954.33029   -838.91764     40.11785    40.109993    48.166537 
   90900   -143380.97   -143422.95    41.986445    34.172802   -156431.37            0    978.97995    54.145903   -34.342135     6.990976   -27.105082   -60.982437       40.093    40.102601    48.168896 
   91000   -143380.65   -143422.65    42.000509    34.284023   -156469.28            0    991.88129    54.164041    576.34289    663.92673    596.74835    492.25866      40.1037     40.11746     48.14155 
   91100   -143380.08    -143421.7     41.62697    34.586734   -156441.05            0    988.97122    53.682323   -661.08532    -691.8698   -643.67126   -624.69858    40.121461    40.122766    48.133917 
   91200   -143379.55   -143422.38    42.834617    34.473102   -156440.22            0    981.10351    55.239709    261.48894    274.00768    251.30215    282.22889    40.118118     40.11986    48.115302 
   91300   -143379.36   -143422.08    42.716834    34.632857   -156471.09            0    996.10821    55.087816    223.08882    222.12119    225.72314    245.12373    40.126971    40.108052    48.136253 
   91400   -143379.24   -143421.52    42.278972    34.807687   -156428.57            0    983.11253    54.523147   -618.18371   -626.25977   -612.21749   -593.24221    40.122215    40.098425    48.154668 
   91500    -143379.1    -143422.2    43.100265    34.804115   -156458.69            0    987.97538    55.582291    511.90309    577.68848    559.24795    421.53491     40.11355    40.093652    48.155176 
   91600   -143379.07    -143422.1    43.028309    34.805745   -156465.48            0     995.8162    55.489495   -63.017201   -74.492255   -94.784117    3.8377154    40.109245    40.110015    48.159714 
   91700    -143379.1    -143422.1    42.993253    34.650353   -156423.67            0     979.2484    55.444288   -498.00082   -539.07962   -519.78418   -411.51334    40.111189    40.129891    48.125006 
   91800    -143379.2   -143422.38    43.177257    34.793738   -156472.36            0    992.14462     55.68158    788.11814    815.63548    825.71923    745.68582    40.103521    40.134758    48.116804 
   91900    -143379.4   -143422.15    42.744627    34.668481   -156442.77            0    988.62222    55.123658    -539.4737   -480.25419   -592.64965   -522.81761    40.107282    40.143281    48.124299 
   92000   -143379.66    -143422.5    42.848126    34.624784   -156427.55            0    980.24952    55.257131   -355.92031   -403.52893   -300.80371   -340.57709    40.115458    40.118447     48.12955 
   92100   -143379.97   -143422.55    42.586652    34.615802   -156490.04            0     996.5169    54.919933     1260.603    1285.6168    1282.6846    1237.0649    40.110215    40.097227    48.149834 
   92200   -143380.29   -143422.65    42.356211    34.436376   -156417.75            0    982.05596    54.622755    -1210.591   -1207.4664   -1268.9732   -1132.2203    40.123475    40.101849    48.159038 
   92300   -143380.58   -143422.67    42.094548    34.270347   -156454.85            0    988.06652    54.285313    221.26085    198.28956    278.31923    210.68384    40.113385    40.097503    48.156059 
   92400   -143380.61   -143423.18    42.571978    34.229166   -156471.69            0    994.08011    54.901009     436.5402    499.23851    434.25701    399.88373    40.114475     40.11656    48.134553 
   92500    -143380.5   -143422.32    41.812205    34.689195   -156422.45            0    979.14092    53.921203   -521.81291   -549.29531   -512.43156   -480.02502    40.113823    40.131829     48.11735 
   92600   -143380.11   -143422.17     42.06237    34.716991   -156464.28            0    992.34657    54.243817    299.02877    303.23799    298.81314    316.98163    40.108578    40.135631    48.118413 
   92700   -143379.39   -143422.47    43.076776    34.462453    -156455.6            0      989.699    55.551999    68.067596    98.836712    74.237725    53.018133    40.119022    40.126072     48.12039 
   92800      -143379   -143421.61     42.61154    34.619273   -156419.42            0      976.814    54.952028   -361.84938   -346.92535   -363.88989   -352.39022    40.112471    40.102859    48.148612 
   92900   -143378.81   -143421.34    42.520236     34.98899   -156480.64            0    999.45839    54.834283    395.69907     398.5381     416.6007      394.534    40.112009    40.098694    48.166063 
   93000   -143378.79   -143421.38    42.589397    34.779183   -156438.94            0     984.3142    54.923473     -165.976   -161.31846   -142.82892   -170.41762    40.110335    40.092246    48.169948 
   93100   -143378.84   -143421.34    42.505817    34.950802   -156438.43            0     985.2687    54.815688   -291.27269   -285.75119   -307.01189   -258.98813    40.113885    40.108273    48.148526 
   93200   -143379.01   -143421.86    42.848351    34.788214   -156484.89            0    998.44654    55.257421    725.26677    727.69039    788.47241    681.59771    40.113815    40.124432    48.126865 
   93300   -143379.34   -143421.48    42.140806    34.893939   -156416.81            0     978.7154    54.344967   -760.70969   -743.40065   -769.51236   -747.57217    40.111268     40.13726    48.118668 
   93400   -143379.68    -143422.5    42.824345    34.646632   -156452.81            0    989.38564    55.226462   -54.401639   -88.383614   -90.309949    37.065527    40.122538    40.131393    48.111413 
   93500   -143379.93   -143422.03    42.094849     34.97257   -156472.97            0    989.11287    54.285702    1199.2132    1216.4521    1293.3482    1109.7999    40.109789    40.102987    48.136397 
   93600   -143380.03   -143422.06     42.02568    34.771534   -156409.35            0    979.29342    54.196501   -1277.6836   -1233.0092   -1323.9829   -1254.4506    40.114515    40.103528    48.163918 
   93700   -143380.08   -143422.66    42.576729    34.527128   -156480.49            0    998.14848    54.907136    452.04723    429.58498    484.22545    465.84142    40.117653    40.093322    48.163805 
   93800   -143380.07   -143422.16    42.082723    34.675519   -156440.79            0    980.81758    54.270064    368.07044    383.79866    416.46094    328.46651    40.105256    40.097583    48.153702 
   93900   -143379.82   -143422.42    42.591268    34.712103   -156437.31            0    988.18856    54.925886   -804.94552   -804.41952   -850.14778   -738.30065    40.115318    40.126566     48.13824 
   94000   -143379.26   -143422.11    42.844814    34.728336   -156475.59            0    994.60009    55.252859    642.14426    669.91152    650.15167    629.20197     40.11157    40.130558    48.119294 
   94100   -143378.64   -143421.79    43.152517    34.867643   -156427.69            0    978.21681    55.649675   -52.611098   -39.187582   -21.569704   -73.831172     40.12532    40.121384     48.10696 
   94200    -143378.4   -143421.58    43.180709    34.984054   -156459.48            0    996.12145    55.686032   -476.68966   -485.53771   -494.07944   -427.46237     40.13219    40.111974    48.140006 
   94300   -143378.44   -143421.61    43.177656    34.871666   -156453.76            0    985.39702    55.682094    598.62141    608.26788     588.1227    622.41307    40.118386     40.09283    48.145351 
   94400   -143378.56    -143421.1    42.539684    34.786566   -156436.69            0    984.82956    54.859363   -326.17416   -294.95086   -327.88023   -331.81209    40.121099    40.097629    48.153058 
   94500   -143378.76   -143421.57    42.810486     34.71145   -156455.39            0    991.89729     55.20859   -168.54689   -146.00104   -174.95685   -159.82678    40.104654    40.112861    48.160387 
   94600   -143379.13   -143421.68    42.550881    34.422155   -156444.95            0    982.36006    54.873803    455.45041    444.05392    489.94844    456.65941    40.093815    40.132401    48.125887 
   94700   -143379.36   -143421.73     42.37526    34.772647   -156455.92            0    994.12878    54.647321   -425.50378   -421.10907   -406.86177   -426.72724    40.106334    40.145812    48.126065 
   94800   -143379.56   -143421.94    42.375365    34.978127   -156445.33            0    985.06389    54.647456    94.296208    90.669068    54.353544    159.55109    40.112544    40.129156     48.11797 
   94900    -143379.8   -143421.91    42.113621    34.648548   -156446.57            0    984.28588     54.30991    278.40741    291.03806    333.70069     233.5002    40.117221    40.097216    48.145798 
   95000   -143379.86   -143422.59    42.730069    34.461511   -156462.43            0    997.04282    55.104884   -491.07032   -478.10618   -447.54815   -523.93478    40.127754    40.089983    48.173286 
   95100   -143379.83   -143422.91    43.078896    34.560544   -156440.61            0    980.56434    55.554733     345.9891    316.39105    341.64113    403.98024    40.121134    40.077057    48.159812 
   95200   -143379.82   -143421.82     42.00074    34.869695   -156453.93            0    989.21557    54.164339    77.062931    115.51203     118.0856    20.296687     40.10998    40.097274    48.164511 
   95300   -143379.73   -143422.09    42.364724     34.88001   -156447.14            0    992.70425    54.633734   -760.37677   -725.38933   -807.60043   -726.59856    40.115149    40.133629    48.133825 
   95400   -143379.65   -143422.47    42.817845    34.798499   -156451.26            0    980.81293    55.218081    997.25216    958.59558    1025.3072    1030.0263    40.106698    40.127967    48.103111 
   95500   -143379.56   -143422.21     42.65461    34.700504   -156452.82            0     992.0044    55.007571   -433.44466   -432.27331   -328.81004   -517.25549    40.113198    40.137374    48.128204 
   95600   -143379.43   -143422.58    43.152157     34.47317   -156428.52            0    982.38975    55.649211    -595.4341   -594.36579   -640.78436   -527.83029    40.117983    40.117025    48.135782 
   95700   -143379.39   -143422.23    42.837122    34.713974   -156468.29            0    988.55506     55.24294     1007.357    1053.7559    959.20665    1033.2077    40.105336    40.101155    48.146514 
   95800   -143379.37   -143421.61    42.240857    34.746283   -156449.99            0    992.66491    54.473994   -587.50269   -618.81275    -522.1571   -598.95275    40.116779    40.105209    48.163544 
   95900   -143379.34   -143422.51    43.167807    34.586316   -156423.43            0    975.79351    55.669393   -8.8493247   -18.905686    9.5325665    5.5109283    40.100065    40.103367     48.15356 
   96000   -143379.35   -143422.48    43.130275    34.511215   -156477.47            0    998.27394    55.620991    288.38894    318.71952    279.50819    290.48577    40.113996    40.119268    48.139983 
   96100   -143379.37    -143421.9    42.537679    34.878862   -156431.61            0    982.49378    54.856778   -367.95234   -350.11031   -368.90829   -361.11754    40.124514    40.116413    48.123765 
   96200   -143379.39   -143422.52     43.13365    34.610906   -156442.36            0    983.09371    55.625344    156.34141    181.18865    127.01409    184.25699    40.121561     40.10854     48.12759 
   96300   -143379.41   -143422.83    43.419957    34.377553   -156471.29            0     996.4933    55.994566    117.22244    89.506186    151.56819    132.25407    40.132309    40.111414    48.129104 
   96400    -143379.5   -143422.03     42.52795    34.825051   -156423.14            0    978.57916     54.84423   -364.67352   -358.20493   -324.12637   -389.04284    40.113375    40.106248    48.144463 
   96500    -143379.7   -143422.11    42.418163      34.5823   -156463.41            0    991.08145    54.702649    364.62191      372.882    338.25646    405.60352    40.102688    40.111633    48.153915 
   96600   -143379.85   -143422.03    42.177545    34.658156   -156452.46            0    989.64281    54.392347   -60.745769   -32.607658   -42.363794   -85.490402    40.090825    40.119851    48.162645 
   96700   -143380.03   -143421.87    41.839086    35.122596   -156422.89            0    978.54596    53.955869   -411.44136   -419.29762   -374.71204   -416.82742    40.098438    40.123217    48.143968 
   96800   -143380.19   -143422.29     42.10122    34.628021   -156484.36            0    997.94505    54.293918    726.66637     695.5121    752.50942    754.46592     40.11575    40.123387    48.124264 
   96900    -143380.3   -143422.64    42.342592    34.398485      -156421            0    978.48671    54.605192   -539.30662   -493.00438   -503.76249   -599.02385      40.1211    40.122089    48.119797 
   97000   -143380.28   -143422.57    42.296009     34.66282   -156446.18            0    987.92138    54.545118   -265.42443   -300.42633   -248.19529   -225.86776    40.132728    40.122736     48.11167 
   97100   -143380.08   -143422.65    42.568244    34.625065   -156483.79            0    995.75129    54.896193    986.49963    1011.5185    924.88728     1046.917    40.119838    40.111312    48.125109 
   97200   -143379.76   -143421.91    42.149293    34.634047   -156409.68            0    976.52587    54.355913   -944.28032   -961.73316    -840.6125   -1006.7597    40.113286    40.103397    48.157715 
   97300   -143379.29   -143421.94    42.646114    34.819987   -156463.48            0    992.36994    54.996616      227.868    187.90972    253.54771    264.52145    40.106921    40.100568    48.165434 
   97400   -143378.92   -143421.82    42.904696    34.924682   -156456.45            0    988.26482    55.330084     364.4775    401.41306    320.61858    394.02692    40.097924    40.109817     48.15706 
   97500   -143378.76   -143421.07    42.309349    35.195145   -156433.76            0     983.0449    54.562322   -312.10573   -312.71313   -276.84111   -324.02353    40.106798    40.116263    48.147074 
   97600   -143378.72   -143421.36    42.642599    34.994625   -156464.54            0    993.89286    54.992082    164.23418    184.70293    175.27159    156.04012    40.107689     40.12021    48.143173 
   97700   -143378.75   -143421.67    42.921095    34.961507    -156443.4            0    985.15974    55.351232    16.105559    -2.695585    46.969564    27.693444    40.123179    40.116151    48.121742 
   97800    -143378.9   -143422.11    43.211709    34.721346   -156444.27            0    986.99907    55.726009    -193.9811   -193.48105   -172.18107   -193.08273    40.128631    40.110055     48.12846 
   97900   -143379.21   -143422.41    43.202809    34.534263   -156461.96            0    991.97738    55.714532    213.39703     248.0106    206.85914      210.345    40.119128     40.10722    48.140517 
   98000   -143379.64   -143422.06    42.421772    34.880125   -156430.42            0    979.50375    54.707303   -104.67729   -100.53307   -79.819051   -107.82865    40.116866    40.101376    48.144116 
   98100   -143379.94   -143422.15    42.210373    34.801671   -156464.04            0    995.82828    54.434682   -167.17184   -112.16608   -136.88722   -228.17918    40.106883    40.111352    48.162854 
   98200    -143380.1    -143421.9    41.796229    34.793404   -156451.94            0    985.34326      53.9006    450.05641    406.00632    438.19207    530.64812    40.104324    40.110509    48.143401 
   98300   -143380.08   -143422.08    42.006335     34.65138   -156431.19            0    982.75207    54.171554   -459.69214    -450.7556   -471.72105   -433.98139    40.112618    40.114847     48.14232 
   98400   -143380.01   -143423.07    43.061187    34.327757   -156471.07            0    997.51551    55.531895    1.4786214    42.364189    34.756166   -50.724091    40.135368    40.112407     48.12578 
   98500   -143379.97   -143422.77    42.796381    34.448985   -156446.37            0    980.69053      55.1904    662.90917    663.95057    616.84857    731.16352    40.126439    40.098116    48.122803 
   98600   -143379.83   -143422.58    42.746857    34.457981   -156426.49            0    984.07441    55.126534   -937.70896   -892.81689   -871.52509   -1024.5322    40.113348    40.109161    48.159561 
   98700   -143379.68   -143422.31    42.639618    34.339652   -156475.26            0    995.91014    54.988238     462.5173    380.00561     463.7423     567.2176    40.099972    40.114292    48.156171 
   98800   -143379.51   -143421.68    42.167254     34.72248   -156432.22            0    977.56459    54.379075     293.7794    354.89508    190.28068    358.43319    40.075963    40.122849    48.156835 
   98900   -143379.25   -143421.98    42.725398    34.598285   -156446.93            0     992.9219    55.098861   -784.38653   -775.93791   -684.13061   -869.67057    40.099999    40.133091    48.153063 
   99000   -143379.03   -143422.17    43.139498    34.593919   -156458.63            0    987.76362    55.632886    553.89893    586.34505    533.69022    565.09267    40.124803    40.112246    48.117482 
   99100   -143378.83   -143421.51    42.673911     34.72433    -156439.8            0    984.22358    55.032462   -69.301654   -53.386815   -83.796168   -48.516411    40.152404    40.099133    48.107417 
   99200   -143378.64   -143422.01    43.372197    34.641153   -156465.96            0    996.99675    55.932975   -216.65407    -251.5042   -203.98966   -171.08698    40.159608    40.096103    48.122141 
   99300   -143378.53   -143421.64    43.102553    34.733239    -156432.6            0    978.24683    55.585241    221.62083    262.63079    221.04488    202.75956    40.119236    40.098882     48.13679 
   99400   -143378.41    -143421.9    43.490367    34.851604   -156451.62            0    990.25418    56.085367   -137.51738   -101.49093   -131.91944   -156.85613    40.103835    40.116454    48.152802 
   99500   -143378.46   -143421.62    43.159822    34.964781   -156464.37            0    995.72633    55.659096   -82.764054   -82.444163   -73.767976   -67.270228    40.080956    40.129503    48.170544 
   99600   -143378.82   -143421.18    42.361949     34.88054    -156421.1            0    973.39008    54.630154    183.50286    195.66922    158.04332    220.94519    40.078534    40.126923    48.146953 
   99700   -143379.18   -143422.42    43.243391    34.654708   -156469.93            0    999.18894    55.766866   -228.93776   -219.28266   -236.97087   -208.60201    40.122188    40.125929    48.131397 
   99800   -143379.62   -143422.37     42.74891    34.510254   -156442.15            0    983.29142    55.129182    72.402386    99.316059    122.58749    19.874681    40.136109    40.105997    48.117275 
   99900   -143379.94   -143421.87    41.938605    34.693541   -156440.65            0    982.19355    54.084208      198.045     203.7642    192.50705    221.15768    40.142403    40.095019     48.11682 
  100000   -143380.06    -143422.4    42.338274    34.471598   -156467.93            0    999.79548    54.599623   -482.88997   -474.74801   -508.84081   -442.69714    40.128692    40.107925    48.152328 
  100100    -143380.1   -143422.59    42.487814    34.290547   -156433.77            0    976.99961    54.792471    399.60066    392.92849    405.75052    422.88931    40.089637    40.107994    48.155656 
  100200   -143380.04   -143422.58    42.544407    34.528613   -156460.75            0    992.55583    54.865454    49.963519    49.576315    55.808675    67.865428    40.075726    40.127029    48.172938 
  100300   -143379.84   -143422.34    42.502469    34.590779   -156450.76            0    992.79293     54.81137   -613.65047   -557.25125   -561.62524   -699.23116    40.085985     40.14025    48.159678 
  100400    -143379.5   -143422.41    42.904101     34.59361   -156435.83            0    976.05116    55.329316    704.70336    681.98468    712.78249     742.0451    40.115847    40.113783    48.109017 
  100500   -143379.14    -143421.5    42.360443    34.825853   -156473.72            0    1001.6416    54.628212   -303.08069   -299.07369   -353.91397   -233.04918    40.153787    40.111759    48.116188 
  100600   -143378.81   -143421.67    42.863769    34.689126   -156426.93            0    980.07958    55.277304   -346.04741   -370.36181   -277.26087   -367.30631    40.153942    40.092545    48.115131 
  100700   -143378.55   -143421.97    43.418382    34.716863   -156448.75            0    982.06269    55.992535    731.62203    723.69016    777.05681    716.07788    40.126327    40.087533    48.134432 
  100800   -143378.45   -143421.54    43.094177    34.689782   -156466.81            0    1000.6077    55.574439   -591.78526   -545.53636   -613.64636    -593.5586    40.104547    40.120304    48.170026 
  100900   -143378.51   -143422.22    43.706528    34.712163   -156419.62            0    973.96099    56.364131    29.162194    31.789892    52.706782    25.488592    40.068167    40.124846    48.163219 
  101000   -143378.78   -143421.78    43.002416     34.77738   -156467.18            0    992.42551    55.456104    481.95076     507.2132    464.94448    496.59909    40.073207    40.143615    48.148408 
  101100   -143379.23    -143421.7    42.466908    34.798151   -156447.46            0    991.51588     54.76551   -617.42849   -615.62374   -606.44798   -608.04154    40.116089    40.134573    48.129574 
  101200   -143379.81   -143422.52    42.710176    34.426334   -156430.27            0    976.66673     55.07923    283.17221    333.15239    309.97806    228.26029    40.134602    40.096827    48.115219 
  101300   -143380.25   -143422.46    42.209677    34.607823   -156485.55            0    1002.8824    54.433784    136.55523    145.07206    95.972249     191.4403    40.165314    40.089215    48.123612 
  101400   -143380.33   -143422.53    42.197921    34.493506   -156424.36            0    978.37648    54.418624   -349.14325   -342.22458   -346.80091   -335.24843    40.145082    40.082217    48.136016 
  101500   -143380.26   -143422.32    42.052283    34.719138   -156445.57            0    983.48235    54.230809    290.17478    299.75283    321.10609    272.24164    40.104885    40.100977      48.1551 
  101600   -143380.09   -143422.45    42.357342    34.679484   -156481.84            0    1002.7767    54.624213   -49.206155    -18.20694   -53.861411   -52.894878    40.089537     40.13383    48.164003 
  101700   -143379.82   -143423.14    43.314873    34.125615   -156411.89            0    971.14184     55.85905   -161.85164   -116.45383   -167.01445   -179.49535    40.077455    40.135488    48.140544 
  101800   -143379.53   -143422.09    42.566714    34.746252   -156470.37            0     995.4438    54.894221     245.0068    244.81399    257.04861     256.7779    40.101782    40.138401    48.129405 
  101900   -143379.23   -143422.47    43.245669    34.534302   -156460.49            0    994.09746    55.769804    -162.5603    -188.7118   -116.22157   -159.50838    40.123363    40.119162    48.131862 
  102000   -143379.02   -143421.46    42.444707     34.62677   -156417.87            0    973.75189     54.73688   -47.817978   -40.696634   -39.100181   -41.601491    40.133338    40.096781    48.120836 
  102100   -143378.85   -143420.51    41.658853    35.218916   -156480.01            0    999.92296    53.723439    316.69966    341.67329    347.81917    283.67641    40.146853    40.083454    48.145707 
  102200   -143378.69   -143421.84    43.152625    34.569825   -156432.45            0    984.13893    55.649814   -486.89092   -467.50466   -512.71589   -456.99693    40.124522    40.086557    48.163031 
  102300    -143378.7   -143421.69    42.991159    34.621416   -156439.67            0      981.562    55.441587    229.02833    238.03181    244.47057    227.76996    40.102564    40.104394     48.15313 
  102400   -143378.81   -143421.43    42.623003    34.948786   -156483.63            0    1000.1578    54.966812    479.03346    480.77134    502.66458     477.2687    40.095687    40.136578     48.13929 
  102500   -143379.14   -143421.72    42.577854    34.726942   -156411.22            0    978.05445    54.908587   -1002.8958   -986.33355   -1053.4315    -945.6939    40.100582    40.157537     48.11066 
  102600   -143379.66   -143421.73    42.070332    34.654466   -156473.83            0    993.45522    54.254084    724.81047    797.70123    701.94084    697.28965    40.112731    40.141654    48.100707 
  102700   -143380.06   -143422.84    42.780105     34.35615   -156460.24            0    991.69265     55.16941    75.786305    30.483008    85.345859    135.07696    40.137232    40.113776    48.115122 
  102800    -143380.3   -143422.16    41.861548    34.558333   -156418.79            0    978.87929    53.984836   -701.52662   -710.45158    -709.1761   -662.75404    40.142883    40.080693    48.147146 
  102900   -143380.31   -143422.51     42.20557    34.313027   -156481.71            0    997.31387    54.428488    657.99536    698.99149    678.91112    618.08956    40.123425    40.070505    48.178829 
  103000   -143380.16   -143423.02    42.861585    34.296015   -156437.25            0    983.25601    55.274488    -214.7302   -209.40238   -228.10718   -184.44969    40.110866    40.088814    48.172144 
  103100   -143380.03   -143422.22    42.191064    34.605286   -156439.19            0     984.0256    54.409781   -176.77045   -174.40591   -163.31045   -170.70104     40.09494    40.123701     48.15019 
  103200   -143379.82   -143422.42    42.608902    34.546462    -156473.4            0    996.60147    54.948627    286.92063    279.06303    303.32142    300.69589    40.089431    40.153622    48.125279 
  103300   -143379.58    -143422.1    42.527029    34.608638   -156426.19            0    978.56927    54.843042   -195.70211   -178.84848     -186.038   -198.90092    40.098167    40.148708    48.109077 
  103400   -143379.35   -143421.81    42.466159    34.725356   -156461.28            0    993.44107    54.764545   -6.5350711   -7.7840228    13.534029   -2.1942731    40.125405    40.123649     48.12018 
  103500   -143379.19   -143422.35    43.154373    34.593223   -156455.57            0    989.63899    55.652068    133.65364    146.58239    132.87608    144.31153    40.137363    40.096434    48.131259 
  103600   -143379.17   -143422.26    43.087612    34.676549   -156430.72            0    980.64856    55.565973   -214.46232   -221.86959   -182.55764   -215.87406    40.127687    40.083235    48.155833 
  103700   -143379.17   -143422.22    43.043571     34.40144   -156467.68            0    995.18765    55.509177    101.10261    96.076272    131.41684    98.311028    40.118373    40.097754    48.161332 
  103800   -143379.16   -143422.46    43.295519    34.386287   -156443.78            0    984.30718    55.834091    87.086469    126.30737      87.6794    69.764133    40.096109    40.114742    48.153963 
  103900   -143379.23   -143422.36    43.128542    34.537388   -156439.34            0    984.75349    55.618757   -249.95579    -236.6635   -275.73849     -214.186    40.092279    40.135204    48.141959 
  104000   -143379.33   -143421.43    42.093143    35.092912   -156469.22            0    995.29926    54.283502    250.53905    221.47107    273.58502    279.91566    40.113047    40.136253    48.117046 
  104100   -143379.39   -143421.69    42.301188    34.691873   -156438.13            0    983.24191    54.551797    -70.17081   -29.864997   -89.906877   -67.830936    40.128474    40.117078    48.113811 
  104200   -143379.45   -143422.15    42.694881    34.536542   -156447.46            0    989.33048    55.059506   -327.47944    -333.4913   -299.83879   -326.62047     40.14165    40.101981    48.128628 
  104300   -143379.49   -143422.11    42.616755    34.580227   -156470.96            0    993.12074    54.958753    593.95229    620.59657    627.53915    555.24674    40.127545    40.086527    48.150444 
  104400    -143379.5   -143422.26    42.765319    34.649064   -156424.44            0    979.64644    55.150343   -477.22575   -470.09657   -497.30588    -443.2733    40.113611    40.095045    48.162704 
  104500   -143379.52   -143421.71    42.192067    34.942434   -156458.23            0    993.48549    54.411075    -171.6207    -195.5212   -157.16322   -139.20652    40.101889    40.110554    48.166842 
  104600    -143379.5   -143422.15    42.648582    34.643517   -156466.02            0     989.3747    54.999798    789.44332    881.21722    786.40432    724.23622    40.086067    40.126518    48.143972 
  104700   -143379.51   -143421.72    42.217005    34.650546   -156425.41            0    983.15343    54.443234   -844.48063   -869.71828   -809.69476   -830.80202    40.118472    40.138805    48.115521 
  104800   -143379.51    -143422.3    42.791716    34.552906   -156465.41            0    992.79768    55.184385    272.52349    260.07858    307.61311    272.92313    40.133266    40.128974    48.099464 
  104900   -143379.48   -143422.63    43.157053    34.320679   -156450.97            0     984.5999    55.655525    446.06219    475.52359    438.77737    446.90172    40.137732    40.111236    48.101978 
  105000   -143379.43   -143422.13    42.694392    34.757612   -156425.16            0     982.4919    55.058875   -774.06614   -776.82533   -789.89315   -732.29394    40.136841    40.101581    48.135256 
  105100   -143379.38   -143422.29     42.91322    34.670519   -156469.09            0    992.87425    55.341077    493.76013    499.01312    522.15376    484.30348     40.11261     40.09454    48.161067 
  105200   -143379.36   -143421.76    42.401012    34.591836   -156439.03            0    982.84135    54.680531    33.836003    47.344337    50.671357    28.536893    40.097723    40.101911    48.166481 
  105300   -143379.32   -143421.52    42.206443    34.839229    -156446.7            0    990.10013    54.429613   -422.94712   -422.06906   -421.34597   -401.76889    40.100201    40.114306    48.165801 
  105400   -143379.22   -143422.56    43.346236    34.122997   -156459.69            0    989.71672    55.899495    315.20514    313.23449    321.07027    334.03447    40.106692       40.126    48.130553 
  105500    -143379.2   -143421.94    42.740117    34.590158   -156446.06            0    986.75849    55.117841   -82.584352   -65.047247   -79.887181   -80.956932    40.113955    40.131117    48.119735 
  105600   -143379.27   -143421.53    42.251129     34.77754    -156453.6            0    990.34011    54.487241   -72.860035   -76.960862   -55.881062   -62.650272    40.120684      40.1343    48.112029 
  105700    -143379.3   -143421.87    42.570684    34.714188   -156449.24            0    986.71036     54.89934     140.7707    125.80921    157.12061     162.9867    40.126125    40.120877    48.112041 
  105800   -143379.42   -143422.11    42.688995    34.604125      -156446            0    987.39515    55.051915   -119.35881   -94.140767   -120.87936   -119.38765    40.122382    40.104531    48.140574 
  105900   -143379.65   -143422.18    42.528268    34.519693   -156454.31            0    989.90821    54.844641    1.4402821    12.498613    8.3119451    5.9635699    40.111965    40.097929    48.163311 
  106000   -143379.88   -143422.53    42.648648    34.446519   -156441.48            0    983.03313    54.999883    127.75778    136.64604    123.86141    144.88961    40.099551    40.094045    48.171135 
  106100   -143380.09    -143422.4    42.310424    34.438742   -156451.64            0    990.35551    54.563708   -217.10157   -216.44359   -193.32934   -219.78177    40.104009    40.110919    48.161273 
  106200   -143380.29   -143422.33    42.043045    34.758211    -156455.4            0    989.08213    54.218895    140.82129    137.48079    135.67797    171.07229    40.109997    40.123491    48.131621 
  106300   -143380.39   -143422.12    41.733341    34.585802   -156444.73            0     984.2642    53.819499    164.35659    216.91101     173.2146    123.88401    40.118501    40.130119    48.106297 
  106400   -143380.28      -143423    42.719985    34.114959   -156447.93            0    990.32498     55.09188   -500.00141   -491.90194   -481.47795   -504.21967     40.13735    40.127361    48.108123 
  106500   -143379.98   -143422.58    42.604571    34.532201    -156456.7            0    987.10949    54.943042    479.19585    435.35032    506.23285    519.13714    40.124267    40.103051    48.129779 
  106600   -143379.47   -143421.88    42.406592    34.722814   -156445.07            0     986.3049    54.687726    -74.99896   -61.952811   -21.026275    -119.0336    40.116548    40.093465    48.160719 
  106700   -143378.99    -143421.9    42.914842    34.536385   -156449.31            0    991.75437    55.343168   -519.20871   -473.82258   -580.38656   -480.14823    40.110208    40.101324    48.174332 
  106800   -143378.74   -143421.12    42.379791    34.774698   -156453.22            0    983.61643    54.653164    768.36173    744.35139    795.25156    788.56751    40.098927    40.103215    48.152122 
  106900   -143378.61   -143422.26    43.649641    34.581076   -156444.86            0    989.57158    56.290768    -476.2685   -437.06469    -464.0839   -505.43436    40.108746    40.130909    48.135207 
  107000   -143378.76   -143422.13    43.378972    34.646587   -156453.89            0    991.62481    55.941713   -234.05537   -262.31333   -240.65119   -176.18623    40.121396    40.135481    48.113838 
  107100   -143378.99   -143421.48    42.488267    34.950956   -156451.21            0    982.24462    54.793055    826.69823     780.6739    833.25192     890.1764    40.126872    40.119841    48.095451 
  107200   -143379.14   -143422.14    42.997055    34.771393   -156449.33            0    993.90881    55.449191   -824.66837   -720.15824   -860.09266   -870.48571    40.132948    40.116836    48.136722 
  107300    -143379.4   -143421.94    42.544676    34.687791   -156444.26            0    983.86498    54.865801    179.40706    190.93911    168.23606    202.18852    40.114498    40.098649    48.149625 
  107400   -143379.62   -143422.05    42.429734    34.500031   -156452.12            0    985.65095    54.717571    432.18241    375.07061     478.7771    466.39021    40.111254    40.094003    48.155489 
  107500   -143379.79   -143421.97     42.17611    34.670282   -156457.33            0    996.46485    54.390496   -645.13345      -597.76   -630.31252   -684.50998    40.111908    40.107986    48.170931 
  107600   -143379.97   -143422.33    42.355805    34.511606   -156442.07            0    981.64281    54.622231    333.29529    359.02951    309.39516    354.17557    40.108677    40.112443    48.133677 
  107700   -143380.02   -143422.94    42.914063    34.183379   -156459.59            0    991.70677    55.342164    51.196424     63.41339    89.451065    22.941878    40.124792    40.116602    48.126475 
  107800   -143379.99   -143422.07    42.082571    34.767769   -156446.02            0     988.3792    54.269868   -305.00896   -282.57245   -288.34188   -321.29548    40.129991    40.116902    48.123147 
  107900   -143379.68   -143422.42    42.737001    34.622683   -156441.83            0    981.76499    55.113824    296.13936    271.79272    322.83872    317.40545    40.117777    40.102968     48.13483 
  108000   -143379.12   -143422.51    43.384075    34.354069   -156465.06            0    995.87465    55.948294   -107.64443   -115.66347   -80.262802   -103.44432    40.114362    40.110136    48.154235 
  108100   -143378.68   -143421.65    42.972988    34.575389   -156435.03            0    982.56788    55.418154   -148.91071   -117.71547   -158.06861   -147.69294    40.103597    40.109198    48.154024 
  108200    -143378.4   -143421.49    43.096438    35.032561   -156453.58            0     987.8691    55.577355    278.54313    257.02015    299.38952    301.28108    40.094239     40.11243    48.159266 
  108300   -143378.31   -143421.39    43.078168    34.836103   -156458.48            0    994.57785    55.553794   -316.46643   -355.84188   -274.35735   -296.91424    40.108707    40.123944    48.148821 
  108400   -143378.37   -143421.88    43.506194    34.870628   -156432.53            0    980.37002    56.105779   -22.221352    43.401479   -53.515212   -32.774869    40.109124    40.119653    48.129628 
  108500   -143378.62   -143422.47    43.849213    34.492958   -156468.76            0    992.01412    56.548137    592.32266    522.73965    600.52258    678.09515     40.12186    40.112158    48.125653 
  108600   -143379.06   -143421.92     42.85433    34.731292   -156434.38            0    988.25629    55.265131   -959.18229   -928.95649   -903.78633   -1022.3904    40.133281     40.10839    48.141861 
  108700   -143379.45   -143422.51    43.063882      34.3258   -156448.29            0    982.67077    55.535371    525.30542    524.54627     531.9201    542.72658      40.1193    40.097486    48.137816 
  108800   -143379.69   -143422.43    42.741279    34.531613   -156468.87            0    993.10433    55.119341    417.89122    359.19211    425.31621    491.34033    40.114035    40.106945    48.146549 
  108900   -143379.82   -143422.38    42.557189    34.451355   -156424.55            0    983.25645    54.881937   -940.52587   -838.71293   -953.85729   -1007.2118    40.100366    40.119023    48.162436 
  109000   -143379.89   -143422.29    42.404239    34.574315   -156464.28            0     989.1242    54.684692    698.38948    706.09855    673.02358    738.19739    40.098141    40.120632    48.138203 
  109100    -143379.9   -143421.82    41.917178    34.616542    -156460.9            0    993.81491    54.056577   -95.843194    -138.9362    -49.03729   -75.955231    40.119757    40.119816    48.134232 
  109200   -143379.83   -143422.43    42.601686    34.288388   -156426.49            0    979.71654    54.939321   -382.07906   -364.28588    -365.5887   -392.67069     40.12758    40.107531    48.129087 
  109300   -143379.67   -143422.39    42.721889     34.48603   -156466.83            0    992.30035    55.094335    431.86094    442.51045    405.46063    470.02033    40.132263    40.107534    48.122042 
  109400   -143379.35   -143422.22    42.862216     34.63052   -156449.93            0    989.57555    55.275302   -218.61356   -214.79778   -208.54929   -211.17458    40.129515    40.108459    48.133877 
  109500   -143378.83   -143421.56    42.726442    34.939376   -156433.94            0    981.20328    55.100207   -68.385183   -79.998952   -47.269569   -55.143238    40.114227    40.112561    48.134963 
  109600   -143378.36   -143421.62    43.266367    34.943816   -156464.64            0    993.28995    55.796496    225.03914    222.70296    250.35067    226.25214    40.096222    40.117595     48.15847 
  109700   -143378.15   -143421.62    43.467998    34.398109    -156441.7            0    985.48162     56.05652   -139.76281   -127.97222   -140.08977   -127.66029    40.093777    40.120014    48.157132 
  109800   -143378.11   -143421.52    43.417377    34.757142   -156448.47            0     987.5389     55.99124    14.975344    29.763888    22.296944    15.873155    40.102741    40.118506    48.147217 
  109900   -143378.23   -143421.96    43.734232    34.604947   -156460.05            0    992.70334    56.399858    32.055818    28.019423     44.08226     46.39799    40.118723    40.118962     48.13221 
  110000   -143378.53   -143421.96    43.424111    34.638788   -156438.71            0    983.37301    55.999924   -67.353149   -75.193168   -47.885848   -55.769226    40.136002     40.11385    48.109467 
  110100    -143378.8   -143421.39    42.594123    35.071508   -156456.04            0    990.67243    54.929568    39.358904    64.043272    42.630664     33.95371    40.138853    40.109183    48.118493 
  110200   -143378.99   -143421.58     42.59138     34.92961   -156451.95            0     988.6389    54.926031    17.334912    17.940666    28.535647    29.204459     40.12736    40.108057    48.132578 
  110300   -143379.17   -143421.98    42.810223    34.444809   -156439.11            0    983.40332    55.208252   -59.768887   -33.727016   -71.132572   -49.950502     40.10732    40.115643    48.141785 
  110400   -143379.39   -143421.52    42.131119    34.698895   -156461.93            0    992.81301    54.332476    107.82825    110.19928    116.75289     119.5202    40.097506     40.12246    48.153165 
  110500   -143379.52   -143422.16    42.638317    34.672251   -156446.31            0    986.36287    54.986561   -42.650274   -56.386059   -7.2100553   -41.945603    40.092385    40.123673     48.15381 
  110600   -143379.65   -143422.11    42.452021    34.569716   -156448.02            0    987.99183    54.746312   -115.69297   -79.685426   -131.98491   -112.44709    40.099177    40.118504    48.153982 
  110700   -143379.76   -143421.67    41.909615    34.707405   -156467.21            0    994.11886    54.046823    225.34264    247.52283     211.2115    239.14942    40.125118    40.111788    48.132439 
  110800   -143379.76   -143422.64    42.878493     34.50253   -156434.26            0    982.01098    55.296293   -212.16406   -233.91099   -206.07907   -174.63158    40.135231    40.105855    48.120891 
  110900   -143379.76   -143422.44    42.680891    34.542981   -156454.23            0    990.23497    55.041464   -39.933557   -49.626415  -0.35648078   -48.808477     40.13074    40.111576    48.124826 
  111000   -143379.74   -143422.09    42.349436    34.585174   -156458.82            0    989.46441    54.614019    298.10353    316.92441    271.18588    328.05094    40.114651    40.121214    48.127246 
  111100   -143379.61   -143422.54    42.926628     34.17397   -156429.89            0    981.91323    55.358368   -424.92074   -428.65234   -450.94549   -371.57049    40.104217    40.118638    48.145907 
  111200   -143379.39   -143421.91    42.528594    34.445203   -156465.71            0    993.60731    54.845061    212.58335    221.81193    277.68943     161.3809    40.104044    40.114197    48.153836 
  111300    -143379.1   -143421.89    42.793544    34.492646   -156447.45            0    984.26303    55.186741    300.75459    290.76137     262.6339    371.55328    40.106458    40.108384    48.146827 
  111400   -143378.81   -143421.59    42.781093    34.798763   -156436.22            0    988.13146    55.170685   -769.80213   -838.70605   -671.39542   -777.61993    40.125124    40.112771    48.141456 
  111500   -143378.58   -143421.96    43.383003    34.926849    -156472.6            0    993.18098     55.94691    681.54441    765.23397    680.15655    622.75233     40.11772     40.11045    48.133261 
  111600   -143378.56   -143421.57    43.011293    34.798985   -156434.79            0    981.51977    55.467552   -37.915936   -10.772145   -130.24404     51.11745    40.114112    40.115883    48.130412 
  111700   -143378.65   -143421.44    42.787559    34.800885   -156445.12            0    991.96397    55.179024   -753.58455   -845.11586   -600.40501   -792.19881    40.121555    40.121648     48.14036 
  111800   -143378.85   -143422.12    43.268982    34.550447   -156464.89            0    987.82202    55.799868    892.86879    942.07191    873.57186    885.72165    40.100889    40.115522     48.13708 
  111900   -143379.26   -143421.47    42.206077    34.829032   -156432.24            0    983.64805    54.429142   -409.65854   -372.86859    -431.8226   -402.13076    40.106101    40.119099    48.143496 
  112000   -143379.76   -143421.94    42.179307    34.812626   -156463.53            0     995.8613    54.394619   -228.33592   -220.60195   -193.07711   -249.73703    40.116971     40.12098    48.142102 
  112100   -143380.13   -143422.44    42.313715    34.639103   -156442.13            0    981.24437    54.567953    350.77239    381.08867    333.17681    360.07465    40.113576    40.109963    48.130623 
  112200   -143380.25   -143422.53    42.277257    34.315809   -156452.85            0    990.66974    54.520936   -201.78342   -212.07077    -195.9857   -175.64192    40.123639    40.111042    48.137875 
  112300   -143380.21   -143422.53    42.315962    34.371127   -156454.36            0    989.43117    54.570851    8.4184495    9.2495717    28.758927    9.5014456    40.119134    40.103891    48.148006 
  112400    -143380.1   -143422.44    42.348364    34.461382   -156443.29            0    984.24039    54.612636    111.27949    134.71814    101.30485       118.84    40.116335    40.102745    48.141292 
  112500   -143379.86   -143422.59     42.72858    34.422543   -156462.57            0    995.35374    55.102963   -232.51625   -218.37732    -247.2871   -210.56874    40.113203    40.120763    48.145512 
  112600   -143379.63   -143422.78    43.151934    34.474364   -156437.19            0    980.70994    55.648923    133.59951    139.68326    135.13336    149.05377    40.105139    40.124238    48.126844 
  112700   -143379.45   -143422.14    42.687687     34.54619   -156454.36            0    989.72996    55.050228    58.573803    69.154217    60.972757    68.082871    40.110062     40.13321    48.121246 
  112800   -143379.28   -143422.22    42.935471    34.437429   -156452.99            0     991.6974    55.369772   -326.82682   -317.43762   -321.46438   -318.56224    40.118884    40.122936    48.134777 
  112900   -143379.14   -143421.41    42.268949    34.893346   -156440.14            0    980.06184    54.510221    471.23659    480.75626    508.75034    447.09057    40.116908    40.096225     48.13893 
  113000      -143379   -143421.85    42.845795    34.900391   -156466.51            0    997.50623    55.254125   -204.26258   -186.90476   -205.07445   -197.93574    40.120668    40.096203    48.167014 
  113100   -143379.02   -143422.04    43.027398    34.851069   -156435.67            0    984.43074    55.488321   -413.86788   -432.21912   -419.96192   -365.84941    40.113115    40.101556    48.160638 
  113200   -143379.12   -143421.39    42.274797    34.956638   -156463.54            0    988.42854    54.517764     801.9637    787.70128    911.97943     729.4881    40.098437    40.109814    48.147887 
  113300   -143379.25   -143422.29    43.040687    34.476823   -156450.91            0    993.20914    55.505458   -649.53343   -573.65181   -708.74449   -643.33741    40.111943      40.1343    48.137177 
  113400   -143379.75   -143422.19    42.441962    34.585541   -156434.03            0     981.3403    54.733341   -63.686478   -131.31051     9.513025   -46.860398    40.118952    40.123861    48.113518 
  113500   -143380.57   -143422.79    42.220095    34.399235   -156477.81            0     994.9108    54.447219    685.87221    675.26182    753.75503    651.37199    40.120102    40.120895      48.1199 
  113600   -143380.93    -143422.7    41.769142    34.311695    -156435.7            0    986.41163    53.865669   -761.16079   -705.88741   -847.78562   -707.18145    40.117994    40.119182     48.14277 
  113700   -143380.95   -143422.68    41.729511    34.326771   -156445.29            0     983.0104     53.81456    326.05558    298.09262    398.41821    304.58536    40.103473    40.099549    48.156408 
  113800   -143380.71   -143422.93    42.219039     34.40063   -156475.95            0    997.56568    54.445858    234.32934    266.01224    231.53895    227.66499    40.110505    40.101474     48.16594 
  113900   -143380.39   -143421.92    41.525436    34.543298   -156427.43            0    980.40978    53.551384   -381.54568   -367.83597   -419.60946   -334.47356    40.114416    40.110864    48.141212 
  114000   -143379.93   -143422.27    42.332512    34.531614   -156455.37            0    988.97022    54.592193    191.08378    204.92701     189.0204    203.58775    40.118722    40.123628    48.119056 
  114100   -143379.58   -143422.89    43.311234    34.399992   -156460.66            0    992.81422    55.854358   -31.557792   -22.532543   -46.835748   0.43492826    40.125375     40.13382    48.108502 
  114200   -143379.41   -143422.07     42.65888    34.510625    -156429.7            0     979.8335    55.013079   -130.10541   -100.72209   -146.19295   -119.83778    40.113558    40.125833    48.117978 
  114300    -143379.2   -143422.33    43.131577    34.538662   -156471.97            0    996.62081     55.62267    174.21187    161.07052    209.81417     174.4358    40.116806    40.113767    48.143607 
  114400   -143379.09    -143421.8    42.707318    34.632289   -156443.75            0    985.64274    55.075545   -88.275914   -69.365809   -95.989968    -76.68051     40.10918    40.099176    48.163349 
  114500   -143379.02   -143421.74     42.71863    34.861371   -156438.33            0    983.20568    55.090132   -37.012105    7.4171102   -38.977497   -57.423358    40.107908    40.089776    48.170424 
  114600   -143378.96    -143422.7    43.738468    34.408301   -156471.76            0    995.69259    56.405319    235.54141    222.44075     260.6726    245.87367    40.116272    40.105285    48.153684 
  114700   -143379.12   -143421.55     42.42554     34.94981   -156427.72            0    980.78898    54.712163   -322.06912   -298.22279   -277.68967   -368.29481    40.120091    40.114985    48.126838 
  114800   -143379.36   -143422.06    42.701586    34.714414   -156457.26            0    990.54588    55.068153    87.496155     74.78625     68.56962    141.76889    40.124112    40.136752    48.102177 
  114900   -143379.77   -143422.27    42.498893    34.570221   -156468.12            0    993.46371    54.806758    329.66626    355.40669     336.1797    320.72091    40.113874    40.143129    48.105735 
  115000   -143380.23   -143421.95    41.721601    34.487665   -156415.81            0    977.29228     53.80436   -641.33795   -621.36113   -631.45357   -650.25953    40.108683    40.130576    48.124451 
  115100   -143380.47    -143423.1    42.628306    34.168308   -156476.67            0    996.15009     54.97365    447.71186    432.00101    468.53881    463.90634     40.11091    40.107556    48.152638 
  115200   -143380.63   -143422.54    41.909147    34.390088   -156443.36            0    984.01505    54.046219    95.344083    130.81747    134.29818    44.350852    40.106378    40.086122    48.174357 
  115300   -143380.58   -143421.72    41.145304    34.687781   -156430.88            0    984.05897    53.061165   -630.66555   -634.63666   -679.53307   -555.69977    40.112804    40.090364    48.176333 
  115400   -143380.25    -143422.8    42.544932    34.588689   -156479.31            0    995.30351    54.866131    747.36534    797.15433    745.30066     722.1063    40.113472    40.104109     48.14668 
  115500   -143379.95   -143422.09    42.147383    34.337696   -156421.94            0    977.47452     54.35345   -305.87678   -306.83006   -277.87072   -310.93312    40.114879    40.126074     48.11647 
  115600   -143379.68   -143422.23    42.541297    34.567943   -156457.28            0    994.31675    54.861442    -422.2922   -418.87211   -446.11248   -380.49571    40.116879    40.150955    48.108642 
  115700   -143379.57    -143422.4    42.831609    34.560555   -156464.53            0    988.32371    55.235831    828.90859    861.00833    798.99947    849.58167    40.103624    40.134291    48.111625 
  115800    -143379.5   -143421.15    41.647297    34.787947   -156430.39            0    984.67841    53.708536   -692.06119   -698.21736   -705.59281   -650.35254    40.114124    40.117548    48.144119 
  115900   -143379.35   -143421.97    42.610968    34.849178   -156467.04            0    995.67449    54.951291   -4.5515518    22.873828    10.914494   -25.848147    40.111819    40.095856     48.17458 
  116000   -143379.29   -143422.01    42.717825    34.770535   -156443.12            0    980.72081    55.089095    567.55556    558.10334    611.06092      556.581    40.115668    40.080635     48.15677 
  116100    -143379.3   -143421.58    42.283802     34.75362   -156445.62            0    990.93585    54.529377   -640.48651   -607.20106   -653.26746   -638.50565    40.132057    40.110486    48.138933 
  116200   -143379.28    -143422.1    42.827305    34.664231   -156464.85            0    992.70828     55.23028    268.22479    282.43091     242.3351    302.45479    40.127049    40.126888    48.109361 
  116300   -143379.29   -143422.58    43.293686    34.392047   -156432.67            0    978.77815    55.831728    158.18934    163.13688    167.84938    167.12162    40.112928    40.139361    48.095529 
  116400   -143379.34   -143422.29    42.949951    34.502866   -156460.72            0    995.47452    55.388445    -382.7128    -353.8799   -376.70976   -393.81137    40.112351    40.142699    48.125063 
  116500   -143379.45   -143422.17    42.720216    34.798447   -156446.09            0    984.23505    55.092178    278.22849    285.97067    267.50043    306.11793    40.101368    40.114311    48.143338 
  116600    -143379.7   -143422.04    42.347326    34.608398   -156443.86            0    985.62105    54.611298   -71.066697   -50.342503   -60.177084   -79.064927    40.103562    40.097857    48.170237 
  116700   -143380.04   -143422.49    42.446774    34.507576   -156458.96            0    993.52815    54.739545   -210.50316   -212.87753   -224.77565   -170.76293    40.119561    40.098534    48.161988 
  116800   -143380.33   -143422.82    42.494271    34.158564   -156440.56            0    981.41619    54.800798    259.86479    262.14581    279.45823     261.2012    40.115604    40.104361    48.135223 
  116900   -143380.45   -143422.81    42.356019    34.611642   -156458.06            0     992.2441    54.622507   -156.62706   -158.45982   -137.07063   -151.89993    40.120974    40.128674    48.122973 
  117000   -143380.44   -143422.95    42.510974    34.417816   -156448.49            0    987.58492    54.822339   -70.209552   -96.825298   -63.640483   -27.328223    40.122278     40.13106    48.109054 
  117100   -143380.27   -143422.76      42.4851    34.438142   -156445.39            0    983.04257    54.788971    295.09207    316.84206    320.89326    270.97703    40.118819    40.125869    48.108907 
  117200   -143379.87   -143422.43    42.556988    34.509176   -156457.79            0    994.17493    54.881678    -381.5055    -391.9835   -360.14101   -369.82288    40.123511    40.120183    48.136363 
  117300   -143379.33   -143422.12    42.791186    34.601237   -156441.27            0    983.19468    55.183701    114.79027    110.46193    140.62725    115.90943    40.105167     40.10671    48.150437 
  117400   -143378.96   -143422.03    43.065797    34.949465   -156462.98            0    989.95871     55.53784    476.94469    476.18136    520.58607    456.99594    40.098212    40.100184    48.170187 
  117500   -143378.83   -143422.05    43.221329    34.867498   -156438.62            0    990.16897    55.738415   -943.56247    -984.0096   -935.21921   -889.09711    40.102526    40.115672    48.171773 
  117600    -143378.9   -143421.52    42.621961    34.837479   -156448.21            0    982.68609    54.965468    650.38781    717.06107    619.12067    638.84634    40.096672    40.118119    48.135281 
  117700   -143378.98   -143421.76    42.783179    34.974893   -156461.83            0    992.12772    55.173375    162.37963    161.79239     172.6117    176.69801    40.134526    40.127788    48.101652 
  117800   -143379.09   -143422.28    43.185015    34.328167   -156433.69            0    987.00433    55.691584   -822.91284   -838.82882   -783.05292   -823.56688    40.148658    40.125254     48.09769 
  117900   -143379.29   -143422.35    43.057418     34.48386   -156453.57            0    982.97788    55.527035    789.72292    801.08515    748.38416    842.79993      40.1292     40.10709    48.110604 
  118000    -143379.5   -143422.52    43.019841    34.673912   -156455.73            0    992.19402    55.478576   -206.88885   -206.73901   -205.69605   -185.64826    40.114075    40.106177    48.157069 
  118100   -143379.82   -143421.59    41.773286    35.058234   -156442.52            0    986.71793    53.871013   -259.34491   -226.19857   -273.07527   -256.49727    40.089542    40.100214    48.188753 
  118200    -143380.1   -143422.57    42.469314    34.677468   -156453.26            0    986.61333    54.768614    333.92837    362.28363    327.51479    335.89522    40.077702    40.105063    48.185591 
  118300    -143380.4    -143422.5     42.10312    34.559767    -156453.8            0    991.27058    54.296368   -196.16709   -174.89615   -182.59408    -208.0652    40.091772    40.122209    48.162557 
  118400   -143380.72   -143422.31    41.589711    34.616364   -156446.27            0    986.02629    53.634273   -28.155382   -26.493337   -33.588337   -2.3381411    40.123902    40.124536    48.114149 
  118500   -143380.98   -143423.34    42.355144    34.221757   -156450.45            0    986.15392    54.621379    175.01633    193.92805    165.04883    188.11128    40.140275     40.11864    48.096512 
  118600   -143381.28   -143423.08     41.80901    34.349933   -156452.92            0    990.83201    53.917082   -228.25832   -203.20019   -219.38156   -238.92488    40.140618    40.120446    48.105538 
  118700   -143381.45   -143422.72    41.264269    34.483199   -156444.61            0    984.01767    53.214582    108.03581    104.26246    133.05124    109.95387    40.118131    40.110565    48.132444 
  118800   -143381.29   -143423.01    41.724241    34.572169   -156450.86            0    987.06981    53.807764    114.04944    147.61197    120.04843    97.051885    40.092541    40.110392    48.165195 
  118900   -143380.82   -143422.29    41.467291    34.641215   -156450.87            0    990.45702      53.4764   -318.35613   -324.94926   -297.54897   -309.47153    40.086757     40.11111     48.18509 
  119000   -143380.21   -143422.75    42.536412    34.252571   -156451.93            0    986.00142    54.855144    312.56735     369.1777    288.00824    304.70624    40.094272    40.110985    48.158884 
  119100   -143379.82   -143422.51    42.690501    34.505524   -156454.04            0     990.4836    55.053857   -80.597684   -62.888062   -67.141268   -87.618702    40.132027    40.112718    48.122946 
  119200   -143379.59   -143422.11    42.511591    34.503607   -156443.52            0    987.69068    54.823135   -387.32338   -430.68972   -352.09983   -356.59293    40.152664    40.115336    48.099994 
  119300   -143379.31    -143423.5    44.184111     34.10379   -156458.61            0    986.35666    56.980023    670.43652    691.54705      667.077    674.83998    40.139077     40.11401     48.09415 
  119400   -143379.12   -143422.25    43.126352    34.647482   -156441.97            0    987.67653    55.615933   -461.04555   -455.11608   -442.00109   -462.65142     40.12451     40.12476    48.122887 
  119500   -143378.98   -143421.97     42.98283     34.75674   -156443.94            0    986.58881    55.430846   -193.01584    -144.5896   -217.72189    -194.0809    40.088388    40.125325    48.159535 
  119600   -143378.88   -143421.55    42.669505    34.854854   -156465.12            0    989.47751     55.02678    749.70053    723.11006    792.78612    754.97104     40.07712    40.113553    48.171883 
  119700    -143378.9   -143421.15    42.250584    35.058428   -156437.91            0    988.55226    54.486538      -774.72   -756.69702    -775.6208   -767.91502    40.100692    40.118976    48.166504 
  119800   -143379.02   -143422.15    43.130519    34.588974   -156445.49            0    984.47035    55.621306    209.32101    177.88698    251.03811    221.21744    40.122192    40.102757    48.134012 
  119900   -143379.26   -143421.71    42.452904    34.827765   -156465.07            0    991.71625     54.74745    428.04754    464.63739     406.7435    436.24699    40.140651    40.108433    48.110824 
  120000   -143379.64   -143421.77    42.136392    34.974514   -156430.45            0    985.07042    54.339276   -759.07388   -736.74264   -756.70636   -761.09875    40.141296    40.121362    48.108247 
Loop time of 71593.9 on 8 procs for 30000 steps with 12000 atoms

Performance: 0.014 ns/day, 1657.266 hours/ns, 0.419 timesteps/s
20.2% CPU use with 8 MPI tasks x no OpenMP threads

MPI task timing breakdown:
Section |  min time  |  avg time  |  max time  |%varavg| %total
---------------------------------------------------------------
Pair    | 60825      | 61511      | 62243      | 186.7 | 85.92
Bond    | 4.8414     | 5.1253     | 5.3447     |   6.9 |  0.01
Neigh   | 0          | 0          | 0          |   0.0 |  0.00
Comm    | 9214.5     | 9946.4     | 10631      | 463.9 | 13.89
Output  | 1.8929     | 1.9161     | 1.9484     |   1.2 |  0.00
Modify  | 109.61     | 110.27     | 111.63     |   6.7 |  0.15
Other   |            | 19.19      |            |       |  0.03

Nlocal:    1500 ave 1514 max 1490 min
Histogram: 2 1 0 2 1 0 0 0 0 2
Nghost:    24374 ave 24384 max 24360 min
Histogram: 2 0 0 0 0 1 2 0 1 2
Neighs:    2.18011e+06 ave 2.20363e+06 max 2.16118e+06 min
Histogram: 1 1 1 1 1 1 0 0 1 1

Total # of neighbors = 17440899
Ave neighs/atom = 1453.41
Ave special neighs/atom = 1
Neighbor list builds = 0
Dangerous builds = 0
unfix NPT
variable STEP equal step
velocity all scale 80 temp CSequ
fix NPT all npt temp 80 80 0.100000 tri 1. 1. 0.100000
fix_modify NPT temp CSequ
run 10000
Memory usage per processor = 21.0152 Mbytes
Step TotEng PotEng KinEng Fnorm E_coul E_long E_bond Temp Press Pxx Pyy Pzz Lx Ly Lz 
  120000   -143359.74   -143421.77    62.034655    34.974514   -156430.45            0    985.07042    80.000163   -484.76007   -455.01328   -478.90599   -486.65168    40.141296    40.121362    48.108247 
  120100   -143358.74   -143413.16    54.414693    38.230147   -156447.95            0    988.37601    70.173426      491.359    462.56545    553.66647    484.46297    40.120429    40.123857    48.117854 
  120200   -143357.26   -143409.32    52.062843    39.855644   -156434.23            0    991.15873     67.14047   -525.17938   -548.06282   -487.49132   -513.53485    40.102037    40.131013    48.156799 
  120300   -143355.48   -143410.12    54.633937    39.374776   -156451.01            0    991.68514    70.456164    525.84693    590.72887    477.84325    537.72039    40.088366    40.117925    48.164311 
  120400   -143353.63   -143407.72    54.092872    39.942797   -156418.75            0     987.0299    69.758404   -681.89287   -581.18008   -783.07018    -650.2519    40.108005    40.111947    48.168384 
  120500   -143351.65   -143409.09    57.446697    39.427789   -156462.32            0    994.88358    74.083512    783.40711    764.76546    887.88635    726.21457    40.123271    40.094353    48.155373 
  120600   -143349.74   -143407.36    57.616761    39.638679   -156416.79            0    987.07384    74.302827   -758.16741   -958.25252   -498.40552   -787.81074    40.145196    40.096708    48.144463 
  120700   -143347.85   -143405.78      57.9342    40.578509   -156444.87            0    990.68811    74.712198    505.15247    476.75003    486.78095    580.73229    40.138762    40.115575    48.111979 
  120800   -143345.98   -143404.69    58.703012    41.211338   -156445.45            0    997.18349    75.703661   -201.24192   -55.792436   -377.02102   -139.99327    40.127347    40.137445    48.120344 
  120900   -143344.28   -143403.55    59.271281    41.367871   -156417.85            0    984.05149    76.436503   -87.612073     29.56426    -145.9087   -113.14377    40.104723    40.137546    48.131086 
  121000   -143342.66   -143403.42    60.758901    41.364855   -156446.98            0     995.9213    78.354945    185.82259    115.37688    307.51019    166.05754    40.107233    40.128838    48.145842 
  121100   -143341.26   -143402.49    61.237492    41.528446   -156429.65            0    992.32024    78.972138   -341.90931   -425.69158   -252.76348   -314.27718    40.120049    40.114737    48.154929 
  121200   -143340.06   -143401.65    61.589512    41.886981   -156430.78            0    987.31291    79.426104    434.81469    494.76455    357.95599    483.98641    40.118291    40.099727    48.153888 
  121300   -143339.06   -143401.25    62.193703    41.746277   -156439.39            0    999.17472    80.205272   -518.69284    -423.2492   -589.66143   -512.39477    40.137582    40.096274    48.166573 
  121400   -143338.37   -143400.53    62.151731    42.094395   -156434.31            0    988.11539    80.151144    577.41047    617.45141    566.03512     580.4578    40.129576    40.100848    48.139626 
  121500   -143337.91   -143400.63    62.719757    42.106493   -156417.85            0    990.11549    80.883673   -631.47458   -686.22927   -530.77153    -643.3689    40.127047    40.123389    48.139707 
  121600   -143337.82   -143402.24    64.423798    41.807032   -156452.63            0      995.786    83.081212    651.26119    605.84905    698.98584    684.75907    40.113655    40.129546    48.130424 
  121700   -143338.22   -143401.21    62.984523    42.209919    -156408.4            0    986.13418    81.225116   -708.43321   -636.37483   -787.83375   -668.28019    40.108468    40.144312    48.133383 
  121800   -143338.93   -143400.84    61.910047    42.196037   -156451.43            0    994.60201    79.839468    748.22796    807.35468    713.67425    756.78196      40.1082    40.129678    48.134069 
  121900   -143339.79   -143401.65    61.858309    42.158704   -156418.45            0    991.65639    79.772746   -868.20357   -903.68822    -748.3302   -919.51933     40.11745    40.122398    48.158555 
  122000   -143340.62   -143402.74    62.122913    41.822572   -156451.31            0    991.84179    80.113981     997.4741    872.17096     1141.768    1010.2519    40.130253    40.103371    48.130035 
  122100   -143341.33   -143403.04    61.705527    41.455333   -156412.95            0    990.62803    79.575718   -1145.4302   -1129.8288   -1212.0019   -1063.1953    40.149021    40.112775     48.13551 
  122200   -143341.87   -143402.67    60.796553    41.567357   -156459.59            0    994.93872    78.403501    1091.7186    1271.9545    880.95867    1154.8884    40.128028    40.111511     48.12445 
  122300   -143342.05   -143404.17    62.125043    41.347638   -156413.82            0    988.84367    80.116727   -874.77947   -785.47817   -864.33237   -941.38966    40.126815    40.122003    48.141656 
  122400   -143342.05   -143403.45    61.399597    41.353341   -156447.64            0    993.33173     79.18119    537.17633     449.8668    686.31901    507.05019     40.10864    40.124878    48.140209 
  122500   -143341.76    -143402.2    60.443402    41.571204   -156424.33            0    989.15611    77.948076    -276.9077   -360.28873   -199.02573   -239.56241    40.105929    40.132631    48.146053 
  122600   -143341.21   -143402.33    61.121472    41.470545   -156431.41            0    990.03343    78.822517    70.475022    143.68786     12.03539    88.870242    40.100974    40.132606     48.14541 
  122700   -143340.59   -143402.58    61.995799    41.963558   -156441.62            0    995.07578    79.950053     4.688691    70.965811   -62.132884     37.46209    40.117419    40.133234    48.132973 
  122800   -143339.98   -143402.23    62.255767    41.946572   -156418.75            0    985.63711    80.285309   -110.75902   -120.80139   -48.967946   -131.47465    40.126241     40.11921    48.129788 
  122900   -143339.45   -143402.58    63.134838    41.751386   -156437.51            0    992.10519    81.418964    175.67374    98.228407    268.01238    194.87693    40.128254    40.115451    48.134039 
  123000   -143339.06   -143401.87     62.80487    41.770162   -156426.76            0    990.67306    80.993435   -259.36425    -291.0676   -241.89689   -209.88771    40.125611    40.121375    48.137686 
  123100   -143338.81   -143402.01    63.201005    41.924506   -156422.06            0    983.99881    81.504293    323.72858    373.60191    261.91855    369.10713    40.105716    40.126498     48.13606 
  123200    -143338.8   -143401.66    62.858814    41.865407   -156438.08            0    997.88982    81.063002   -450.64655   -404.39938   -482.63488   -436.18268    40.113426     40.13737     48.14364 
  123300   -143339.11   -143401.34    62.224727    41.746444   -156434.11            0    988.10484    80.245281    539.55193    527.32395     604.9466    516.41692    40.110161    40.127427    48.130692 
  123400   -143339.48   -143402.48     63.00057    41.598846   -156412.76            0    987.27731    81.245811   -667.79565   -710.09486   -602.78882   -659.12411    40.124472    40.117552    48.146627 
  123500   -143340.05   -143401.46    61.412146    42.056126    -156470.9            0    1003.2631    79.197372    753.10701    791.90878    683.61916    816.89803    40.122931    40.105758    48.154646 
  123600   -143340.59   -143402.47    61.877479    41.780908   -156390.43            0    978.25575    79.797468   -827.10844   -710.06819   -894.69469    -843.6263    40.116768    40.100234    48.167541 
  123700   -143341.08   -143402.79    61.705416    41.426362   -156456.78            0    995.86142    79.575575    800.08832    828.93189      867.276    733.42742    40.112442    40.111614    48.150473 
  123800    -143341.5   -143402.22    60.716773    41.684158   -156423.19            0    992.81922    78.300617    -790.2006   -870.90079   -656.66041   -812.69365    40.112896    40.142194    48.140037 
  123900   -143341.63   -143403.33    61.702657     41.39331   -156420.91            0    979.65093    79.572016    705.94123    667.49679    716.54671    766.18981    40.098348    40.144593    48.109854 
  124000   -143341.55   -143402.92    61.369919    41.554832   -156449.16            0    1003.5905    79.142917   -643.36997   -577.96918   -715.09885   -605.36748    40.120485    40.156683    48.121762 
  124100   -143341.34   -143403.02    61.678159    41.093399   -156422.26            0    981.91116    79.540424    516.34168    597.68982    476.08115    508.12551    40.117249    40.124426    48.118336 
  124200   -143340.87   -143403.33    62.452603    41.592999    -156423.3            0    990.06948    80.539151   -415.65939   -427.30913   -306.67143   -479.65642    40.134848    40.096163    48.155837 
  124300   -143340.43   -143401.96     61.53088    42.075215   -156452.97            0    998.54657    79.350492    231.64953    155.78055    346.92316    225.12808    40.139012    40.076859    48.176081 
  124400   -143339.98   -143401.94    61.963671    41.890811   -156402.17            0    978.19371    79.908622    -94.72388   -104.22204   -127.79349     -18.5161    40.126099    40.074481    48.173604 
  124500   -143339.49    -143402.4    62.913694    41.659987   -156450.21            0     999.6693    81.133775   -84.890385      13.8834   -199.59021   -36.078918    40.117242    40.103517    48.177548 
  124600   -143339.19   -143401.74    62.554498    41.952948    -156437.3            0    991.70019    80.670555    220.10688    303.63515    202.85438    186.28163    40.107845    40.127019    48.145349 
  124700   -143339.05   -143401.66    62.615621    41.747251   -156403.96            0    981.24533    80.749379    -380.3236   -439.93754   -257.84225   -409.28948     40.11852    40.142358    48.111309 
  124800    -143339.1   -143401.93    62.827962    41.843478   -156463.11            0    1001.8428    81.023215    476.81605    403.48436    534.86636    526.31837    40.131888    40.149086    48.095431 
  124900   -143339.45   -143401.17    61.712567    41.919468   -156402.19            0    982.47011    79.584797   -600.60823    -553.6171   -706.81222   -508.73393    40.136237    40.136157    48.103063 
  125000   -143339.87   -143402.01    62.143716    41.797698   -156442.72            0    990.83638    80.140809    662.12788    756.53316    561.85913    699.99259    40.134926    40.107751    48.124781 
  125100   -143340.28   -143403.11     62.83298    41.444375   -156436.98            0    998.17874    81.029686   -722.36599    -699.5728    -665.3601   -769.78916    40.130877    40.100692    48.174193 
  125200   -143340.76   -143402.45    61.692072    41.485762   -156415.83            0    977.63209    79.558367    732.60875    634.95928    888.36823    707.46834    40.100799    40.085533    48.174888 
  125300   -143341.12    -143402.3    61.185547    41.560027   -156435.63            0    998.05728    78.905149   -746.71981   -736.69012   -736.86229    -732.0503    40.097774    40.122063     48.18867 
  125400   -143341.34   -143402.96    61.613441    41.315138   -156452.05            0    994.11128    79.456964    712.90512     791.1066    616.92629    762.74487    40.094523    40.134913     48.14342 
  125500   -143341.41   -143403.08    61.668704    41.232626   -156397.43            0    980.18056    79.528231   -718.83668   -637.75938   -758.38021   -728.87549    40.108074    40.141215    48.129438 
  125600    -143341.3   -143402.72    61.419653    41.554089   -156463.57            0    999.63204    79.207054    679.95087    656.29685    749.40885    667.27116     40.13559    40.127444    48.111322 
  125700   -143340.96   -143402.84    61.875488    41.374364   -156406.91            0    984.28575      79.7949   -690.17105   -790.50304   -579.03726   -670.31875    40.166799    40.107005    48.105372 
  125800   -143340.47   -143402.76     62.28688    41.712723   -156443.48            0    990.48148    80.325433    653.41783    648.98996    618.73261    723.34086    40.154967    40.094888    48.117259 
  125900   -143339.99   -143402.18    62.186981    41.785534   -156428.32            0    994.43504    80.196603   -647.53811   -533.07792   -793.52181   -583.33976    40.139991    40.099695    48.156737 
  126000    -143339.6   -143401.22    61.618055    41.799592    -156426.3            0    984.31633    79.462914    523.68743    594.71505    519.64419    487.63867    40.107111    40.099622    48.164716 
  126100   -143339.23   -143402.01    62.781665    41.599764   -156437.43            0    996.37749    80.963511    -362.8643   -480.79148   -162.62903   -412.83238    40.105919    40.119783    48.171702 
  126200   -143339.19   -143402.02     62.83243    41.606218    -156430.8            0    989.99261    81.028977    93.234875   -17.299584    217.78638    113.27885    40.097433    40.123666    48.159718 
  126300   -143339.29   -143402.87    63.577501    41.257523    -156420.7            0    984.43879    81.989823    131.85019    197.24823    28.765513    202.14791    40.105776    40.134593    48.130519 
  126400   -143339.61   -143402.93    63.318444    41.437519   -156440.53            0    996.58243    81.655743   -261.78258   -167.21343   -345.46283   -241.34094     40.13037    40.137161    48.119694 
  126500   -143340.17   -143401.48    61.300949    41.918192   -156419.08            0    983.13225    79.053973     268.7317    304.12205    284.12519    250.16548    40.128512    40.124448    48.110863 
  126600   -143340.77   -143402.78    62.009361    41.465927    -156432.1            0    992.96874    79.967543   -290.31132   -333.09259   -222.32771   -282.32019    40.134119    40.115492     48.13673 
  126700   -143341.41   -143402.33    60.921003    41.413309    -156445.1            0    994.67395    78.563992    292.28785    301.29455    278.65944    330.27398    40.121988    40.113345    48.144208 
  126800   -143341.73   -143402.69    60.961033    41.183261   -156412.45            0    984.33861    78.615615   -331.70449   -255.18129   -402.07286   -305.39791    40.104441     40.11913    48.157507 
  126900   -143341.71   -143403.48    61.766978    41.279687   -156450.08            0    995.37393    79.654966    380.31504     425.4197    361.64016    386.10862    40.105045    40.126108    48.150091 
  127000   -143341.61    -143402.3    60.689726    41.816004   -156417.89            0    987.66087    78.265736   -438.10893   -454.29538   -396.54604   -431.46234    40.115374    40.137689     48.12901 
  127100   -143341.41    -143401.9    60.490462    41.554414   -156436.58            0    989.01635    78.008764    493.15482    440.48304    544.54329     526.4472    40.126443    40.128734    48.112068 
  127200   -143341.03   -143402.79    61.757974    41.567745   -156430.95            0    995.20224    79.643354   -639.05089   -597.13548   -667.18851   -620.39147    40.130511    40.122679     48.14105 
  127300   -143340.65   -143403.06    62.413624    41.385828   -156434.53            0    985.15986    80.488882    825.07642     956.9673    716.02735     833.0361    40.113746    40.106924     48.14211 
  127400   -143340.26   -143401.99    61.734218    42.013822   -156417.87            0    993.53013    79.612718   -1152.4548   -1152.3134   -1073.1554   -1200.8173    40.131047    40.104039    48.171457 
  127500   -143339.86   -143401.84    61.980497    41.992849   -156459.83            0    993.53497     79.93032    1280.6645    1109.7932    1512.8637    1252.5387    40.113165    40.100518    48.153201 
  127600   -143339.53   -143402.16    62.637163    41.596878   -156393.29            0    981.62499     80.77716   -1084.6822   -1160.4876   -1030.9479   -1028.7048     40.12178    40.120623    48.147188 
  127700   -143339.34   -143402.09    62.750922    41.722847   -156467.55            0    1002.1368    80.923864    724.27307    877.47287    539.33489    788.99618    40.120414    40.138582    48.116562 
  127800    -143339.3   -143401.64    62.343472     41.75949   -156413.02            0    986.09116    80.398415   -449.59788   -317.95029   -536.79207   -459.09815    40.126148    40.136967    48.114924 
  127900   -143339.38   -143401.52       62.141    41.631228   -156413.25            0    980.72883    80.137306    196.11338    153.74729    311.03197    156.38795    40.120619    40.113805    48.133082 
  128000   -143339.73   -143401.68    61.948066    41.936409   -156459.93            0    1004.4829    79.888497   -34.618892   -110.08598    67.410522   -29.543215    40.121252    40.119908     48.15527 
  128100   -143340.51   -143402.52    62.006596    41.610711   -156413.32            0    982.93037    79.963977   -106.49801   -70.485548   -135.20266   -81.166157    40.108748    40.112476     48.15624 
  128200   -143341.32   -143402.59    61.271275    41.339153   -156442.39            0    994.06296    79.015704    185.37352    286.28078    87.930341    215.41721    40.108945    40.123742    48.149282 
  128300   -143341.71   -143403.19    61.478602    41.239717   -156447.44            0    999.94469    79.283074   -288.82916   -233.02244   -295.38328   -304.88229     40.12456    40.128306    48.140209 
  128400   -143341.79   -143403.09    61.306274       41.392   -156417.96            0    981.77978     79.06084    298.90384    258.22332    389.45506    279.80699    40.133498     40.11467    48.112844 
  128500   -143341.61   -143403.67    62.056443    41.234287   -156440.34            0    996.95477    80.028261    -360.8675   -381.10237    -318.1533   -352.18527    40.143247    40.118137    48.127888 
  128600    -143341.3   -143402.91    61.612314    41.567916   -156431.11            0    986.43324     79.45551    406.04655    446.68052    357.61556    447.26102    40.131795    40.110626    48.126983 
  128700   -143340.82   -143403.03    62.203635    41.237515   -156406.94            0    982.86425     80.21808   -466.94102   -389.71423   -523.89751   -454.42311     40.12216    40.119384    48.136678 
  128800   -143340.38      -143403    62.614337    41.157694   -156476.03            0     1006.426    80.747724    587.59425    588.24143    661.96995    542.17061    40.110678    40.122211     48.15622 
  128900   -143340.18    -143400.8    60.619962    41.928598   -156383.03            0    975.26388    78.175769   -851.28482   -935.40083   -691.42732   -896.98004    40.098089    40.123991    48.160115 
  129000   -143340.01    -143401.5    61.497812    41.964517   -156467.23            0    998.90477    79.307848    1098.8936    1083.8905    1099.3712    1146.0235    40.101197    40.122006    48.149273 
  129100   -143339.82   -143403.34    63.520615     41.47231   -156427.63            0    998.96792    81.916463   -1303.1388   -1136.8243   -1527.1543   -1211.6969     40.13337      40.1181    48.160018 
  129200   -143339.89   -143401.64    61.745255    41.733934   -156411.56            0    971.42304    79.626951    1263.1702    1392.0892    1177.7316    1252.1604     40.12909    40.082325     48.13041 
  129300   -143339.94    -143402.1    62.150808    41.475037   -156440.84            0      1003.19    80.149955   -1036.8909   -1144.0615   -794.86679   -1139.6173    40.161792    40.099293    48.149562 
  129400   -143340.04   -143402.06    62.012512     41.63405   -156449.48            0    993.91564    79.971607    692.91244      601.265    845.87999      663.755    40.129397    40.111354    48.129342 
  129500   -143340.15   -143402.09    61.941163    41.823697   -156400.41            0     979.6671    79.879595   -411.91588    -386.0923     -469.919   -348.08706    40.106523    40.131765    48.136776 
  129600   -143340.28   -143402.59    62.307272    41.727513    -156470.1            0    1006.8816    80.351731    197.88966    284.50805    96.003046    243.87535    40.097736    40.148125    48.147955 
  129700   -143340.65   -143402.52    61.863143    41.633964    -156401.9            0     977.6612     79.77898   -93.444809   -55.954808   -82.816531   -108.27122    40.094087    40.136334    48.137613 
  129800   -143341.41   -143403.14    61.733823    41.348172   -156450.18            0    998.92039    79.612208   0.57541462   -46.984609    99.303191   -17.837375    40.121952    40.119543    48.147581 
  129900   -143342.39   -143404.02    61.633866    41.105899   -156443.21            0    994.59753    79.483303    76.225058    5.9037662    143.20466    110.94371    40.139255    40.102955    48.140144 
  130000   -143342.88   -143403.44    60.554043    40.972787   -156402.02            0    977.68771    78.090759   -155.49477   -114.98122   -205.22027   -115.04971    40.137875    40.097418    48.131665 
Loop time of 24237 on 8 procs for 10000 steps with 12000 atoms

Performance: 0.014 ns/day, 1683.126 hours/ns, 0.413 timesteps/s
20.0% CPU use with 8 MPI tasks x no OpenMP threads

MPI task timing breakdown:
Section |  min time  |  avg time  |  max time  |%varavg| %total
---------------------------------------------------------------
Pair    | 20647      | 21052      | 21337      | 167.4 | 86.86
Bond    | 1.6788     | 1.8261     | 1.9203     |   4.9 |  0.01
Neigh   | 53.112     | 53.253     | 53.54      |   1.7 |  0.22
Comm    | 2812.1     | 3097.5     | 3502.3     | 436.1 | 12.78
Output  | 0.59751    | 0.60109    | 0.60946    |   0.4 |  0.00
Modify  | 25.217     | 25.851     | 26.55      |   8.7 |  0.11
Other   |            | 6.09       |            |       |  0.03

Nlocal:    1500 ave 1516 max 1483 min
Histogram: 1 0 1 1 0 2 1 0 1 1
Nghost:    24374 ave 24391 max 24358 min
Histogram: 1 1 0 1 2 0 1 1 0 1
Neighs:    2.18193e+06 ave 2.20016e+06 max 2.16191e+06 min
Histogram: 1 0 1 1 1 2 0 0 0 2

Total # of neighbors = 17455441
Ave neighs/atom = 1454.62
Ave special neighs/atom = 1
Neighbor list builds = 56
Dangerous builds = 0
unfix NPT
fix NPT all npt temp 80 80 0.100000 tri 1. 1. 0.100000
fix_modify NPT temp CSequ
run 30000
Memory usage per processor = 21.0152 Mbytes
Step TotEng PotEng KinEng Fnorm E_coul E_long E_bond Temp Press Pxx Pyy Pzz Lx Ly Lz 
  130000   -143342.89   -143403.44    60.553169    40.972787   -156402.02            0    977.68771    78.089633   -155.50681   -114.52971   -204.82064   -114.87535    40.137875    40.097418    48.131665 
  130100   -143342.67   -143403.02     60.34917    41.469043   -156466.36            0    1005.1314    77.826554    159.54385    142.50406    205.03207     162.7615    40.135664    40.117104    48.137816 
  130200   -143342.07   -143403.62    61.551377    41.109525   -156418.18            0    985.49134    79.376925   -192.23705    -221.5904   -46.542728   -274.01328     40.10717    40.120745     48.15075 
  130300   -143341.39   -143403.32    61.935026    41.584607   -156428.57            0    987.02995     79.87168    222.68752    251.09835     226.6208     223.7584    40.096583    40.129236    48.148179 
  130400   -143340.91   -143404.03    63.120248    41.185282   -156442.96            0    997.80774    81.400148   -347.21999   -237.90858   -553.70526   -217.63598    40.107743    40.139605    48.146816 
  130500   -143340.68   -143402.87    62.192655    41.199424   -156434.34            0    988.34097     80.20392    408.89443    463.08786     300.7797    494.22921    40.114048    40.116959    48.141339 
  130600    -143340.4   -143401.94     61.54066    41.557527   -156436.55            0    996.28576    79.363105   -436.98636   -596.57172   -70.009655   -613.42229    40.133165    40.105207    48.158428 
  130700   -143340.12   -143403.32    63.195371    41.385611   -156427.79            0    985.75461    81.497027    375.93146    251.25505    698.29817    209.11635     40.12546    40.099398    48.145184 
  130800   -143340.02   -143402.38    62.363271    41.594202   -156422.97            0    988.97872    80.423947   -261.03861   -120.25331   -515.87343   -114.53489    40.114862    40.121613    48.146612 
  130900   -143339.96   -143402.11    62.157012    41.748504   -156452.86            0    999.57208    80.157955    118.24966    320.38364   -320.00855     387.6304    40.107417    40.135632    48.145525 
  131000   -143339.89   -143401.76    61.875636    41.620641   -156415.62            0    983.60544    79.795091   -35.965492   -73.005065    38.918083   -40.131011    40.104054    40.127353    48.144085 
  131100   -143339.78   -143401.95    62.168158    42.089169   -156434.01            0    992.91118    80.172329    -101.1223   -281.57129    327.92459    -315.1382    40.113953    40.122198     48.14907 
  131200   -143339.79   -143402.33    62.544203    41.698487   -156457.83            0    1001.5321    80.657279    166.44142    154.70199    300.94853    77.651816    40.125629    40.109053    48.156718 
  131300      -143340   -143401.78     61.77236    41.761257   -156397.34            0    977.37884    79.661907   -251.64717   -67.959598    -563.3838   -90.704921    40.132822    40.106119    48.129483 
  131400   -143340.28   -143402.71    62.432953    41.523459   -156450.57            0    997.30944     80.51381    265.31827    357.75825    70.099149    402.88449    40.138845    40.118311    48.122328 
  131500   -143340.76   -143402.35    61.585838    41.664247   -156424.84            0    989.64282    79.421366   -269.85756    -366.5284   -80.201031   -328.41733    40.119467    40.123663    48.140365 
  131600   -143341.22    -143401.7    60.476407    41.824165   -156431.07            0    989.14989     77.99064    218.64908    165.96747      389.564    132.95178    40.096088    40.132427    48.146196 
  131700   -143341.59   -143403.25    61.666882    41.346734   -156449.07            0    999.72395    79.525882   -194.66772   -141.52793   -212.69354   -197.06277    40.096626    40.136235    48.163464 
  131800   -143341.85   -143402.95    61.099883     41.43511   -156414.59            0     980.9203    78.794677    164.46741    226.12798    53.506326    245.64161    40.096902    40.123418    48.150156 
  131900   -143341.76   -143403.73    61.963095    41.225938   -156438.91            0    994.79102    79.907879   -164.76535   -152.29497   -163.77761   -144.61271    40.116481    40.119537    48.152417 
  132000   -143341.43   -143403.23      61.7975    41.551885   -156452.64            0    999.04897    79.694327    134.43034    86.082747    249.30258     100.2556    40.136788    40.112738    48.135137 
  132100    -143340.8   -143401.54    60.739252    41.845097   -156404.78            0    979.49518    78.329605    -143.3999    -174.3549   -65.855329   -159.06703    40.136914    40.102763    48.130672 
  132200   -143339.94   -143402.43    62.483403     41.81215    -156455.7            0    1000.8387    80.578871    117.08607    176.74684    76.189555    132.26667    40.136597    40.108043     48.14496 
  132300    -143339.6   -143401.98    62.381423    42.048129   -156421.82            0    987.77038    80.447357    -170.7708   -85.361732   -277.19571   -114.57928    40.122502    40.115505    48.142339 
  132400   -143339.55   -143402.45    62.895645    41.395388   -156430.02            0     988.1298    81.110499    214.74514     169.9661    308.37172      201.099    40.111092    40.121902    48.142689 
  132500   -143339.52   -143402.66    63.139813    41.525253   -156448.06            0    1000.5874    81.425379   -277.94765   -464.84017    23.952698   -360.28903     40.10794    40.131731    48.157434 
  132600   -143339.68      -143402    62.313508    41.852113   -156416.88            0    982.29882    80.359773    248.70772    237.66675    301.87776    239.75605    40.092592    40.124331    48.152355 
  132700   -143339.97   -143401.62    61.655246    41.883547   -156438.37            0    995.55588    79.510876    -205.7989    59.334864   -636.07268   -7.1283263    40.103653    40.131793    48.155851 
  132800   -143340.33   -143401.92    61.589397    41.612473   -156438.71            0    993.76721    79.425956     57.03076    222.10023   -234.28718    214.30525    40.113788    40.121707    48.148054 
  132900   -143340.65   -143402.49     61.83888    41.423834   -156420.87            0    985.31822    79.747691    65.768973   -150.65926     488.9245   -109.14083    40.133391    40.097475    48.143051 
  133000   -143340.97   -143403.07    62.102891    41.457991   -156445.29            0    998.78291     80.08816   -245.82641   -509.80633    254.02425   -448.06732    40.152424    40.106374    48.130925 
  133100   -143341.26   -143403.06    61.801734    41.317781   -156431.47            0    987.56092    79.699786    355.27498    475.36826    170.79719    453.48101    40.123651    40.122524    48.121445 
  133200   -143341.42   -143403.45     62.03336    41.352093    -156424.8            0    990.34396    79.998492   -416.70538   -161.43137    -854.3867   -202.64084     40.10577    40.139961    48.140601 
  133300   -143341.62    -143402.7    61.084553    41.445914    -156459.6            0    1000.7529    78.774907    363.62977    378.56792     341.9211     402.1097    40.092143    40.140042    48.153015 
  133400    -143341.8   -143402.69    60.893876    41.618075   -156404.56            0    980.56834    78.529009   -334.63025   -488.47789   -61.381019   -422.61666     40.09668    40.119675    48.162466 
  133500   -143341.77   -143403.07     61.30942     41.38939   -156453.81            0    998.40342    79.064897    259.21704    218.94666    344.20306    247.05098    40.114058    40.112911    48.160234 
  133600   -143341.47   -143403.25    61.773781    41.453403   -156421.61            0    987.66525    79.663738   -240.62684   -165.08296    -340.2973   -182.51346    40.134481    40.096755    48.150978 
  133700   -143340.97   -143401.96    60.993055    41.768896   -156428.46            0    987.50095    78.656911    208.86943    240.45315    134.78363    284.82759    40.144936    40.098576    48.128976 
  133800   -143340.28   -143402.24    61.957945    41.555041   -156446.72            0    999.31637    79.901237   -216.67462   -240.87271   -144.08862   -232.07186    40.138037     40.11584     48.13843 
  133900   -143339.83   -143402.55      62.7181    41.469859   -156424.19            0    985.80828    80.881537    185.73074    122.94371    340.33554    127.75331     40.11838    40.119223    48.133995 
  134000    -143339.6   -143400.31    60.715213    42.157447   -156428.81            0    991.85612    78.298604   -216.03551   -173.81854   -219.67194   -222.15952     40.11237    40.136122    48.136202 
  134100   -143339.35   -143400.59    61.241053    42.277222   -156455.05            0    1000.9664    78.976731    180.34075    286.39865    23.080697     261.3717    40.114649    40.133705    48.138585 
  134200   -143339.28   -143402.09    62.810131    41.765004   -156402.51            0    979.03629     81.00022   -220.79401   -182.35422    -270.0939   -176.70856    40.111744    40.120201    48.140959 
  134300   -143339.47    -143402.4    62.927865     41.88392   -156450.32            0    997.69029     81.15205    209.59001    95.462389    450.23264    117.57568    40.116873    40.119081    48.149836 
  134400   -143339.89   -143402.43    62.545037    41.605138   -156435.57            0    993.95656    80.658353    -189.8467   -287.70875     53.41259   -301.32824    40.117645    40.121538    48.149196 
  134500   -143340.45   -143402.85    62.399732    41.356149    -156415.4            0    981.91129    80.470967     91.52749    251.66108   -114.02726    170.18182    40.096507    40.135849    48.139107 
  134600   -143341.01   -143403.19    62.177299     41.47405   -156449.24            0    998.80636    80.184117   -21.825074    168.77941   -328.64154    127.70777    40.106403    40.142094    48.138679 
  134700   -143341.45   -143402.93    61.483251    41.430603   -156430.43            0    990.28285     79.28907   -104.42603   -168.79456   -4.7375343   -108.13373    40.120803     40.12812    48.132245 
  134800   -143341.61   -143402.81    61.195407    41.528222   -156431.73            0    988.96965    78.917865    182.16237   -11.750336     566.2895    22.108188    40.120324    40.114367    48.140845 
  134900   -143341.58   -143403.79    62.216012    41.384323   -156440.08            0     996.3348    80.234041    -318.3497    -322.8803   -241.76795   -358.36941    40.119342    40.116272    48.158197 
  135000    -143341.5   -143402.82    61.322088    41.670783   -156429.88            0    986.22682    79.081233    403.35396    647.48511    10.599018    585.93349    40.092628    40.130732    48.148062 
  135100   -143341.27   -143403.03    61.764324    41.289177    -156425.5            0    991.80737    79.651543   -523.36938   -425.34471   -720.06687   -391.36911    40.096169    40.139069    48.155777 
  135200   -143340.99   -143402.87    61.878707    41.673542   -156451.42            0    995.21954    79.799051    580.63317    368.74364    913.42484    493.54765     40.09811    40.136739    48.139563 
  135300   -143340.83      -143402    61.165758    41.898755   -156408.32            0    984.95856     78.87963   -670.54117   -853.40534   -269.87681   -854.89165    40.123939    40.128786    48.132151 
  135400   -143340.62   -143402.19    61.569255    41.637556   -156458.78            0    997.79722     79.39998    677.16843     799.9976    513.40023    749.30007    40.140012    40.125273    48.106311 
  135500   -143340.32   -143402.11    61.790681    41.661974   -156412.63            0    987.13426    79.685533   -645.53583   -404.74371   -1061.3294   -438.99061    40.143762    40.116576    48.123352 
  135600   -143340.09   -143401.61    61.518933    41.875904   -156435.44            0    988.56633    79.335086    556.83433    534.83825     557.3191    611.27505     40.13077    40.096465    48.142265 
  135700   -143339.87   -143401.96    62.088997    41.862775   -156445.78            0    1000.9087    80.070242   -474.76993   -650.15465   -145.95159   -595.95128    40.114846    40.112911    48.177324 
  135800   -143339.73   -143402.01    62.278314    41.773805   -156419.24            0    982.46214    80.314386    315.65142    323.76765    414.75381    240.04974     40.07887    40.123934    48.170304 
  135900    -143339.6   -143402.06    62.456516    41.738215   -156426.37            0     990.5387    80.544197   -250.00217   -121.68332    -405.8255   -188.66106    40.080554    40.148686    48.157428 
  136000   -143339.56   -143401.27    61.714766    42.019328   -156450.29            0    998.58927    79.587633    139.22625    205.85625    14.938163    230.43138    40.097843    40.157602    48.129012 
  136100   -143339.54   -143401.74    62.203821    41.727019   -156406.03            0    979.98085     80.21832   -112.38474   -171.84711   -19.160938   -112.83098    40.121553    40.135484     48.10966 
  136200   -143339.64   -143402.44    62.799041    41.062579   -156449.83            0    998.57511    80.985919    55.319814   -2.1405573    182.56353    17.694478    40.139558    40.117114    48.129108 
  136300   -143339.95   -143402.35    62.396824    41.677953   -156420.72            0    985.80584    80.467217   -36.314692   -7.1926712    -29.10292   -40.902365    40.139018    40.098666    48.138666 
  136400   -143340.38   -143402.74    62.367518    41.565177   -156423.93            0    987.10096    80.429425   -12.613969    47.951037   -99.128099    43.009787    40.124146    40.099307    48.155867 
  136500   -143340.83   -143402.24    61.413588    41.506982   -156445.05            0    996.68353    79.199232   -1.3609385    17.308649   -21.000104    31.280923     40.10943    40.106856    48.177129 
  136600   -143341.17    -143402.4    61.230546    41.344869   -156423.26            0    986.81619    78.963181   -30.483066   -37.595373    33.502368    -55.28043    40.105336      40.1153    48.159825 
  136700   -143341.33   -143402.83    61.500911    41.254565    -156437.7            0    992.58922    79.311844    29.669384     46.63863    51.552759    21.832519    40.115183     40.13235    48.134963 
  136800   -143341.36   -143402.83    61.460515    41.571973    -156434.2            0    991.88121    79.259749   -33.692439   -3.5161355   -74.660754    9.2867301    40.127213    40.132655    48.118061 
  136900    -143341.3   -143402.16    60.855679    41.820784   -156422.55            0    986.21911     78.47975    25.268394    66.803049    -1.166471    42.428637     40.13041    40.125042     48.11596 
  137000   -143340.98   -143403.09    62.118489    41.403523   -156441.22            0    994.91014    80.108276   -57.895606   -69.463484   -13.194919   -57.274963    40.133964    40.118583    48.132421 
  137100   -143340.36   -143403.16    62.800753    41.222897   -156426.47            0    987.80524    80.988126    38.440872    20.753785    74.815576    54.027533    40.108182    40.125196    48.143323 
  137200   -143339.65      -143402    62.347336    41.483116   -156435.31            0    993.00056    80.403397   -44.502827    -33.15894   -29.491406   -37.487169    40.092042    40.121447    48.175728 
  137300   -143339.13   -143402.48    63.356272    41.558824   -156436.21            0    992.53248    81.704526    50.507797    70.481541    29.716567    84.671645    40.086469    40.126908    48.173684 
  137400   -143339.01   -143401.66    62.644213    41.703339   -156422.76            0    987.91252    80.786252   -99.489859   -87.085934   -136.71138   -42.622087     40.09112    40.139345    48.150125 
  137500   -143339.05   -143401.27    62.214553    42.050049   -156434.69            0    991.70212     80.23216    132.68183    72.556262    218.32705    137.17543    40.122418    40.126968     48.12777 
  137600    -143339.2   -143401.89    62.690236    41.865497   -156428.22            0    991.23605    80.845602   -215.55512    -226.6085   -93.977651   -294.56211    40.142218    40.126892    48.109197 
  137700   -143339.61   -143401.73    62.119122     41.86386   -156432.42            0    989.78347    80.109091    201.64023    268.84868    199.81785    168.50418    40.140495     40.12254    48.108265 
  137800   -143339.97    -143402.4    62.429434    41.470138    -156431.4            0    992.37267    80.509271   -238.20699   -152.81319   -424.29934   -105.69297    40.126227    40.133564     48.12352 
  137900   -143340.26   -143402.82    62.565536    41.365551   -156433.42            0    989.25662    80.684789    225.61331    182.94399    179.67318    347.37372    40.106068    40.125726    48.145496 
  138000   -143340.48   -143402.87    62.388345    41.595712    -156430.8            0    991.76663    80.456283    -234.0302   -371.52568    48.625075   -345.24071    40.107761    40.120469    48.160838 
  138100    -143340.6    -143403.3    62.694528    41.167955   -156431.54            0    988.78769    80.851137    156.33499    199.93655    350.72687   -48.442914    40.096563    40.128526    48.153603 
  138200   -143340.64   -143402.22    61.580286    41.620456   -156432.36            0     991.5929    79.414206   -99.274853    159.24744   -370.49882   -54.144285    40.102307    40.136683    48.145124 
  138300    -143340.6    -143401.6    60.998114    41.856536   -156434.24            0    992.38333    78.663435   -49.738114    21.768311   -461.38873    322.57509    40.121924    40.139603    48.118391 
  138400    -143340.5   -143402.34     61.84127    41.780648   -156442.28            0    994.02945    79.750772    193.09138   -45.622674    345.95893    310.70996    40.138515    40.119284    48.120016 
  138500   -143340.41   -143402.61    62.202079    41.550133   -156432.59            0    993.41843    80.216074   -337.07742   -499.13774    187.15214   -666.40777     40.14307    40.102623    48.144045 
  138600   -143340.34   -143402.87    62.530517    41.470193   -156423.86            0    983.58923    80.639629    427.74696    603.94963    499.58457    214.56749    40.118106    40.108108    48.139406 
  138700   -143340.28   -143402.98    62.692511    41.204668    -156433.2            0    994.65744    80.848536   -468.31934    -280.2349   -826.97475   -265.29386    40.116547    40.130211     48.14684 
  138800    -143340.2   -143402.68    62.472032    41.547533   -156440.97            0    992.08806    80.564206    324.44672    303.04689    172.45736    530.12103    40.104143    40.134457    48.138863 
  138900   -143340.14   -143402.82    62.680793    41.369669   -156415.78            0    984.90718    80.833425   -248.54387    -331.0032   -93.351853   -288.77975    40.100119    40.127941    48.153511 
  139000   -143340.03   -143402.12    62.084098    41.725696   -156451.11            0    998.15591    80.063925    193.94367    189.57368    307.10619    117.65572    40.106115    40.134842    48.145205 
  139100   -143339.74   -143402.11    62.370922    41.721948   -156427.89            0    990.91204    80.433814   -193.53031   -137.42096   -224.80022   -185.01427    40.122718    40.122816    48.136426 
  139200   -143339.44   -143401.44    61.995993    41.961589   -156438.68            0    992.85262    79.950304    161.67063    217.65568    39.992577    260.10931    40.137514    40.107043    48.135891 
  139300   -143339.17   -143402.24    63.071373    41.353732   -156431.26            0    992.38027    81.337119   -202.68728   -242.73771   -199.60528   -133.89874    40.146269     40.10816    48.128545 
  139400      -143339   -143402.74    63.744205    41.422847   -156429.21            0    988.25805    82.204806    196.57882    145.00517    353.61791    123.34193    40.139281    40.102812     48.13057 
  139500   -143339.04   -143401.38    62.334597     42.02207   -156435.62            0    994.58749     80.38697   -240.84307   -193.00207   -184.15161    -311.7048    40.126104    40.122004    48.141596 
  139600   -143339.28   -143401.68      62.4043     41.76509   -156431.26            0    988.73516    80.476858    267.56752    405.93193    74.397723     356.1051    40.102334    40.123997    48.149338 
  139700   -143339.76   -143402.23    62.470033    41.677862   -156424.99            0    990.09798    80.561628   -304.38503   -284.10195   -521.69088   -73.436362    40.108679    40.126262    48.151451 
  139800   -143340.36   -143401.72    61.352122    42.069291   -156447.81            0    996.66462    79.119966    248.27344    52.126794    456.88465    268.36057    40.116251    40.111816     48.15604 
  139900   -143340.78    -143402.5    61.719219    41.558534   -156419.75            0     986.4994    79.593375   -200.75474   -268.82826    192.87595   -494.29124    40.118882    40.101865    48.162843 
  140000   -143341.05   -143402.47    61.416484    41.468468   -156436.21            0     991.9604    79.202967    68.615513     258.9555   -13.199227   -6.9333693    40.121996    40.121571    48.136475 
  140100   -143341.18   -143402.89     61.70449    41.492291   -156437.75            0    992.86684     79.57438    44.204134    248.65986   -386.03311    305.20477    40.123828    40.129728    48.125797 
  140200   -143341.16    -143403.6    62.432091    41.066901   -156427.94            0    989.58544    80.512698   -161.78487   -266.62814   -256.83401    72.645565    40.129596    40.126377    48.123335 
  140300   -143340.98    -143403.4    62.413295    41.243557   -156433.14            0    989.12591    80.488459    237.13719    18.211804    645.30579    80.999486    40.120119    40.115063    48.139299 
  140400   -143340.59   -143402.47    61.885634    41.474671    -156425.9            0    990.59621    79.807985   -339.59243   -319.89107   -75.193391   -592.81089    40.117087    40.113371    48.158072 
  140500   -143339.95   -143401.77    61.827084    41.727188   -156439.47            0    991.43972    79.732478    374.85066    600.23314    147.29019    408.77625    40.101609    40.121651    48.155077 
  140600   -143339.16   -143401.83    62.664761    42.055898   -156424.32            0    990.70339     80.81275    -390.0434   -320.66201   -645.29417    -170.1952     40.11241    40.120332    48.156646 
  140700   -143338.67   -143401.12    62.447699    42.027348   -156436.74            0    990.84211    80.532826    338.84758    200.28596    419.96103    428.75958    40.120998    40.121729    48.132282 
  140800   -143338.57   -143401.46    62.899724    41.604268   -156425.38            0    990.28186    81.115759   -265.76286   -333.82416   -48.634614    -382.9403    40.128553      40.1242    48.130708 
  140900   -143338.67   -143401.66    62.993301    41.842773   -156442.35            0     994.7561    81.236437    184.21568    250.11854    213.61728    121.59879    40.124661    40.134676    48.118411 
  141000   -143338.95   -143401.81    62.860111    42.172613   -156429.12            0    990.93178    81.064674    -173.1214   -113.13608   -271.18561   -101.11212    40.129109    40.138847    48.112379 
  141100   -143339.35   -143402.14    62.784304    41.728759   -156424.49            0    986.52923    80.966914    124.83196    105.65998    116.82028    183.74864    40.120033    40.125363    48.127336 
  141200   -143339.71   -143402.36    62.654839    41.402679   -156440.52            0    995.51548    80.799955   -106.60632    -149.8949   -45.799589   -91.642331    40.113371     40.12687    48.149081 
  141300   -143340.05   -143402.05    62.006179    41.683563   -156434.82            0    991.70381    79.963439    81.324953    81.057296    188.79136    7.0473749    40.101251    40.109847    48.174512 
  141400   -143340.34   -143402.09    61.749078    41.397144   -156420.27            0    986.08585    79.631882   -78.285971   -12.680884   -104.28573   -87.446919    40.104652    40.111521    48.165384 
  141500   -143340.55   -143403.34     62.79079    41.484436   -156455.92            0     1001.331    80.975277    39.185139    90.675894   -118.14643    176.94855    40.118075    40.120896     48.15315 
  141600   -143340.69   -143403.33    62.638967    41.135088   -156421.18            0    985.96211    80.779486   -68.709323   -169.26684   -36.285469    31.740034    40.132691    40.115304    48.126456 
  141700   -143340.82    -143402.1    61.282222    41.787928    -156435.2            0    992.20317    79.029822   -3.4719632   -182.96195    359.48428   -154.85875    40.142168    40.126404    48.108849 
  141800   -143340.83   -143402.24     61.41136    41.616522   -156444.19            0    995.82562    79.196359    72.297584     152.7025    299.73102   -204.91814    40.138391    40.120522      48.1224 
  141900   -143340.69   -143402.69    61.999657    41.526274    -156416.7            0    985.17767    79.955029   -184.31604    110.02455    -564.2405   -67.432615    40.118592    40.126254    48.130394 
  142000   -143340.35   -143402.25    61.895564    41.657092   -156450.25            0    996.85248    79.820791    262.97136    308.55368   -147.42058    662.50823    40.099396    40.126367    48.161852 
  142100   -143339.64   -143402.17     62.52871    41.880516   -156428.86            0    992.69271    80.637298    -397.2665   -706.13148   -129.95076   -323.92875    40.095952    40.110294    48.190963 
  142200   -143338.94   -143402.05    63.115267    41.759401   -156435.04            0     988.9472    81.393725    447.01945    289.76537     998.6768    84.763421    40.093311    40.100256    48.186454 
  142300   -143338.59   -143401.64    63.050237    41.845296   -156434.11            0     996.2121    81.309862    -523.9554    -264.5296   -515.28756   -756.43654    40.119385    40.117711    48.161376 
  142400   -143338.51   -143401.56    63.044516    41.684907   -156420.94            0    981.88996    81.302483    519.85607    765.71023    12.637909    817.40009    40.126814    40.140342    48.088521 
  142500   -143338.68   -143401.94    63.256262    41.957623   -156432.39            0     995.0793    81.575552   -488.68218   -602.09728   -665.34165   -164.41975    40.145664    40.151998    48.086548 
  142600    -143339.2   -143401.52    62.319131    41.836178   -156443.15            0    993.70053    80.367024    380.74024    165.42582     700.6959    308.60992    40.129368    40.135459    48.106335 
  142700   -143339.82   -143401.39    61.572038    42.034625   -156407.72            0    982.81333     79.40357   -312.71503   -314.90447   -99.136228   -492.25642    40.112999    40.124698    48.138546 
  142800   -143340.29   -143402.22    61.937253    41.604304    -156466.8            0    1005.1427    79.874553    206.01999    334.99779    122.25085    193.33834    40.107328    40.107977    48.184931 
  142900   -143340.52   -143403.08    62.562897     41.51911   -156414.67            0    983.91863    80.681386   -170.30644   -116.98015   -324.14214   -35.667971    40.111221    40.085504     48.18716 
  143000   -143340.65   -143403.31    62.659831    41.267371   -156429.34            0    987.88657    80.806393     122.1082     53.58901    152.36691    195.57167    40.129331    40.078773    48.174834 
  143100   -143340.71   -143401.49    60.780843    41.843008   -156442.67            0    996.85588    78.383242   -109.89347   -162.57462    31.589806   -165.88787    40.145638     40.10031    48.142321 
  143200   -143340.64   -143402.34    61.696175    41.625063   -156419.34            0    984.31538    79.563658    71.088844    125.02008     104.7346    14.816229    40.126113    40.132623    48.109351 
  143300   -143340.55   -143402.79    62.240039     41.51166   -156442.03            0    995.91101    80.265027    -68.79622    13.814675   -181.94565   -7.7051036    40.118001     40.16483     48.09638 
  143400   -143340.48   -143401.99    61.510901    41.923113   -156430.17            0    990.33808    79.324727   -6.0887913   -22.811263   -90.708638    127.62749     40.10428    40.160257    48.109553 
  143500   -143340.25   -143402.45    62.198371    41.587466   -156420.75            0    985.31873    80.211292    3.0530028   -95.715876    144.78723   -6.7924259     40.10255    40.117597     48.15898 
  143600   -143339.81   -143403.11    63.292704     41.38139   -156449.13            0     999.2393    81.622549   -104.55599   -139.29146    140.16033   -280.75387    40.118012    40.089755     48.19142 
  143700   -143339.21   -143402.16    62.955318    41.186215   -156426.61            0    986.53908    81.187454    223.52772    414.92309    164.25052    125.60777    40.125567    40.078279    48.176103 
  143800   -143338.51   -143401.02    62.511739    42.198386   -156416.07            0    987.11188    80.615412   -390.28407   -214.36687   -806.37097   -116.53146    40.133787    40.105617    48.144776 
  143900   -143338.04   -143401.62    63.581011     42.15288      -156450            0    995.80439     81.99435    527.36768    317.90882    459.58553    837.74761    40.125966    40.119006    48.130078 
  144000   -143338.05   -143401.17    63.127838    42.131894   -156409.85            0    986.98044    81.409936   -702.98669   -1006.3744    -164.6267   -904.68569    40.127221    40.126124    48.132827 
  144100   -143338.43   -143401.48    63.057079    41.953677   -156456.85            0    997.05717    81.318686    744.05131     877.8447    1022.5848     365.5545    40.098296    40.143328    48.132313 
  144200   -143339.01   -143402.37    63.356561     41.37606   -156412.68            0     988.0298    81.704898   -741.18912   -345.93548   -1120.7874   -723.73935    40.098681    40.144317    48.147175 
  144300   -143339.51   -143402.06    62.546991    41.750969   -156443.63            0    991.46245    80.660873    627.16058    670.09712    255.68855    987.06791    40.116344    40.119498    48.134337 
  144400    -143339.8   -143402.15    62.351027    41.851222   -156431.01            0     994.5064    80.408158   -492.77862   -711.33963   -347.82129   -386.17995    40.142783    40.100932    48.149364 
  144500   -143340.07   -143400.96     60.89098    41.793384   -156426.39            0    986.09773    78.525275    323.27023     237.1394    597.71448    169.28399    40.137818    40.094892    48.138419 
  144600   -143340.18   -143402.52    62.349028    41.457305   -156423.14            0    988.65634    80.405579   -236.99195   -123.95106   -224.28164    -328.7064    40.134769    40.112923    48.132752 
  144700   -143340.32   -143402.47    62.149111    41.671411    -156455.9            0     1000.884    80.147766    147.24994    249.93837   -10.846686    234.93202    40.125997    40.131771    48.127536 
  144800    -143340.5   -143401.86    61.362176    41.748187   -156415.78            0    984.05466    79.132931   -122.35702   -156.39752   -192.44965    12.173044     40.10998    40.137309    48.128326 
  144900   -143340.58   -143403.51    62.929861    41.354428   -156437.95            0      992.808    81.154624    86.544401    23.852892    215.80036    50.225912    40.101176    40.126195    48.154616 
  145000   -143340.82   -143402.22    61.400011    41.791189   -156444.28            0    997.18276    79.181723   -85.544835   -78.081083    32.215581   -178.33314    40.111361    40.120755    48.159672 
  145100   -143340.99   -143402.13    61.143347    41.430173   -156424.31            0    987.07487    78.850728    9.9391614    146.45519   -90.774166    6.8947646    40.109627    40.114968    48.154615 
  145200   -143341.07   -143402.61    61.544147    41.231524   -156430.56            0    989.88467    79.367602    11.804954    50.872186   -142.96569    160.40434    40.127663     40.11036    48.141354 
  145300    -143341.2   -143402.08    60.885146    41.977636   -156439.99            0    995.79596     78.51775   -137.72348   -386.61892   -51.544326    54.825614    40.148717    40.114372    48.120485 
  145400   -143341.23   -143401.73    60.493241    42.054072   -156433.32            0    988.82969    78.012348    360.78527    93.803662    957.51646    60.662108    40.140841    40.105062    48.124025 
  145500   -143341.03   -143402.42    61.395226    41.634091   -156423.78            0    991.60875    79.175552   -558.58056   -281.12805   -424.18571   -935.57232    40.125992    40.119153    48.144165 
  145600   -143340.65   -143402.64    61.980208    41.405166   -156448.61            0    993.23881    79.929948    627.86242    1067.2724    79.680667    771.39714    40.097578    40.117452    48.162732 
  145700    -143340.1   -143402.56    62.463456    41.345046   -156411.11            0    986.30265    80.553147   -635.96074   -720.83842   -901.06919   -250.61764    40.113288    40.107737    48.169008 
  145800   -143339.55   -143402.83     63.28314    41.561846   -156449.72            0    994.61563    81.610214     529.0737    215.98188    819.29838    586.92453    40.112634    40.103329    48.165163 
  145900   -143339.29   -143401.57    62.283795    42.010806   -156420.39            0    989.78904    80.321455   -459.19641   -499.85769   -159.30271   -685.80863    40.120912     40.10807      48.1595 
  146000   -143339.25   -143401.68    62.433619    42.083347   -156434.43            0     989.3772    80.514668    395.00525    607.34204    296.36223    313.11208    40.119041    40.127976     48.12297 
  146100   -143339.33   -143401.27     61.94359    41.980889   -156439.54            0    997.31298    79.882725   -340.57127   -244.48279   -544.38448   -200.24124    40.126225    40.143014    48.120865 
  146200   -143339.53   -143402.27    62.735686    41.936052   -156419.51            0    982.98685    80.904215    268.51732    155.90451     248.7772    435.97788    40.112572     40.13497    48.118028 
  146300      -143340   -143403.09    63.091498    41.417554   -156440.78            0    996.99716    81.363072   -264.39412   -379.07718   -65.235379   -314.39599    40.114421    40.126699    48.150567 
  146400   -143340.77   -143403.14     62.37337    41.591526   -156429.41            0    987.56467    80.436971    219.26973    318.73779    321.57662    49.871307    40.098917    40.115493    48.163712 
  146500   -143341.46   -143402.97    61.505635    41.365054   -156425.91            0     989.4104    79.317937   -201.55669   -12.575354   -341.25154   -218.88825    40.107177    40.114239    48.163946 
  146600   -143341.73   -143402.42     60.69539    41.875258   -156449.88            0    997.62003    78.273041    181.96186      200.224    27.166681    350.46319    40.126661    40.102314     48.15754 
  146700   -143341.67   -143402.69    61.025089    41.457572   -156430.69            0    991.50357    78.698222   -189.01725   -440.53828   -26.149841   -68.036645    40.147874    40.102038    48.132026 
  146800   -143341.56   -143402.65    61.088632    41.724264   -156428.62            0    988.24319    78.780167    105.19769   -47.342283    542.37719   -144.58336    40.135786    40.110796    48.127537 
  146900   -143341.24   -143402.78    61.540781    41.782292   -156442.74            0    995.77651     79.36326   -12.304271    384.54162   -35.427267    -352.4942    40.109144    40.134866    48.140635 
  147000   -143340.84   -143403.93    63.096708    41.567382   -156422.43            0    987.04648    81.369791   -168.47595    257.10719   -797.56108    66.637085    40.092349    40.149327     48.13728 
  147100   -143340.57   -143401.94    61.374552    41.991711   -156442.95            0     993.5586    79.148891    293.67881    98.243977    49.858679    765.10967    40.100115    40.132139    48.148273 
  147200   -143340.22   -143402.56     62.33602    41.888355   -156419.74            0    988.04701    80.388805   -368.76576   -778.74868    56.639701   -351.46885    40.114599    40.110912    48.161525 
  147300   -143339.96    -143403.3    63.340297    41.312257   -156450.75            0    996.26983    81.683925    376.59853    407.88704    698.07358    57.120957    40.119298    40.105002    48.159141 
  147400   -143339.86   -143402.92    63.054845    41.341352   -156426.69            0    991.27967    81.315804   -380.19574   -84.141138   -543.41243   -479.35035    40.129675    40.117761    48.139731 
  147500   -143339.82   -143401.89    62.075736    41.861909   -156433.78            0    989.33709    80.053141    352.82558    453.53734    86.924252    547.34087    40.116581    40.125015     48.12886 
  147600   -143339.83   -143401.61    61.785092     42.03699   -156429.54            0    992.81705    79.678325   -384.51646   -559.21683   -331.37344   -232.25183    40.117299     40.12538    48.147873 
  147700   -143339.98   -143401.35    61.376895    42.210613   -156438.87            0    991.67443    79.151912    360.27183    239.21832    595.91077    279.42938    40.101251    40.127536    48.148008 
  147800   -143340.24   -143401.96    61.714801     41.51516   -156427.43            0    991.51629    79.587677   -395.50203   -255.89042   -305.97656   -589.80523    40.095907    40.133094     48.16464 
  147900   -143340.61   -143403.25     62.64207    41.349239   -156446.68            0    994.45805    80.783488    372.71336    587.83431    159.31229    406.09792    40.100047    40.130282    48.148781 
  148000   -143341.44   -143402.61     61.17425     41.53779   -156416.76            0    986.87933    78.890581   -387.34829   -419.82192   -535.14215   -172.38334    40.122389    40.123732    48.134285 
  148100   -143342.42   -143403.67    61.247101    41.226285   -156451.23            0    996.29688    78.984529    334.16892    99.769403    513.86679     420.8592    40.145976     40.11332    48.117702 
  148200   -143342.81   -143404.42    61.606947    41.042542   -156422.87            0    988.31012    79.448588   -317.82438    -387.5494   -35.440513   -499.35281    40.142046     40.11316    48.123395 
  148300   -143342.78   -143403.45     60.67192    41.445936   -156431.88            0    987.86471    78.242774    273.65618    501.10798    229.67338     120.9214    40.123079    40.112917     48.13658 
  148400   -143342.41   -143402.61     60.19918    41.311954   -156453.62            0    1002.2019    77.633127   -245.27764   -63.121034   -582.10854    -59.93379    40.117309    40.130579    48.150096 
  148500   -143341.72   -143404.23     62.50857    41.041822   -156419.54            0    983.27194    80.611325    151.81827   -43.142921    120.76917     408.7027    40.095681    40.117611    48.159291 
  148600    -143341.2   -143403.74    62.535807    41.348173   -156433.89            0     991.3247    80.646451   -72.249483   -389.10166    321.59464   -116.95583    40.099913    40.120162    48.167702 
  148700   -143340.85   -143402.47    61.612794    41.454216   -156442.19            0    995.90201    79.456128   -78.639286     56.81393    200.33545   -459.80031    40.107527    40.131639    48.149751 
  148800   -143340.47   -143401.88    61.409322    41.626481   -156426.68            0    986.67881    79.193731    237.62857    753.96309   -121.49549    113.18469    40.113568    40.135318    48.120404 
  148900   -143340.12   -143402.82    62.699275    41.474753   -156436.08            0    996.07889    80.857259   -482.71782   -416.49038    -1036.793    37.604707    40.149163    40.129815    48.110591 
  149000   -143339.87   -143402.17    62.297247    41.609316   -156444.76            0    991.84138    80.338802    671.75004    111.77984    902.81606    1031.7774    40.147153    40.097841    48.122186 
  149100   -143339.68   -143400.98    61.293765    42.127309   -156405.96            0    984.77529    79.044707   -731.12995   -1025.8865   -139.34842   -996.14255    40.136888     40.09707    48.156341 
  149200   -143339.57   -143401.99    62.425735    42.042085   -156454.06            0    996.85392    80.504502    543.41461    802.68527    600.79231    258.91437    40.101152    40.109095    48.174174 
  149300    -143339.6    -143402.7    63.100054    41.721923   -156421.29            0    989.39375    81.374106   -437.14414   -223.63779    -687.2055   -366.40416    40.104394    40.122042    48.163159 
  149400   -143339.85   -143402.36    62.515031    41.695833   -156429.39            0      986.684    80.619658    345.83163    298.42423    213.84116    560.24222    40.092758    40.134379    48.146746 
  149500   -143340.26   -143401.66    61.395379     41.82225   -156444.51            0    999.56196    79.175749   -328.75421   -497.90086   -157.41806   -298.40443    40.111907    40.129718    48.154914 
  149600   -143340.99   -143402.55    61.562639    41.602834   -156432.87            0    988.74884    79.391449    297.81772    310.53093     467.3716     148.0053    40.118312    40.111242    48.144709 
  149700   -143341.71   -143402.52    60.810092    41.518765   -156411.43            0    983.28974     78.42096   -300.11784   -110.62179   -368.63471   -388.00744    40.128629    40.108733    48.140924 
  149800   -143342.01   -143402.54    60.529876    41.761662   -156458.92            0    1000.9539    78.059593    263.22655    323.16365    97.099173    403.38297    40.138347    40.116072    48.130242 
  149900   -143341.97   -143403.22    61.257028    41.300859   -156410.58            0    982.71611    78.997332   -289.26689   -429.67597   -285.10598   -119.77673    40.121097    40.120454    48.134023 
  150000   -143341.68      -143403    61.323738    41.559756   -156436.73            0    990.40688    79.083361    313.25909    127.78654    631.80397    212.50312    40.115061      40.1167    48.143249 
  150100   -143341.21    -143403.9    62.689176    41.344634   -156451.91            0    1002.2212    80.844236   -349.63292   -131.01609   -192.77594   -692.57409    40.103756    40.133984    48.163266 
  150200   -143340.83   -143402.93    62.104845    41.465806   -156409.08            0    977.26985     80.09068    316.48515    840.45268   -164.13449    306.64543    40.089638     40.12886    48.145441 
  150300   -143340.46   -143402.61    62.146629    41.469814   -156444.74            0    998.05678    80.144565   -174.25107   -208.40145   -615.80527    334.81977    40.120101    40.140374    48.127601 
  150400   -143340.23   -143401.74     61.50756    41.814579   -156438.96            0    994.94829    79.320418   -72.395331   -578.04144    228.70881    164.22541    40.129208    40.129101    48.124566 
  150500   -143340.12   -143401.61    61.495721     41.90889   -156406.57            0    978.11448    79.305151    170.19493    46.377902    642.01948   -146.56465    40.117694    40.107616      48.1404 
  150600   -143340.03   -143402.65    62.621614    41.542139    -156457.2            0    1004.6592    80.757108   -276.46574    84.900088   -340.25478    -541.8549    40.118892    40.117594    48.166267 
  150700   -143340.07    -143402.3    62.231275     41.77649   -156419.71            0    982.28404    80.253725    324.90448    573.39835   -27.180009    463.10447    40.104188    40.105818    48.162208 
  150800    -143340.1   -143402.77    62.666255    41.674608   -156423.11            0     989.5399    80.814677   -382.73067   -573.00637   -450.79629   -89.281518    40.121099    40.103425    48.165162 
  150900   -143340.14   -143403.05    62.903228    41.818604   -156467.69            0    1003.9781    81.120278    395.31806    157.12278    677.99011     385.0785    40.118388    40.104766    48.169366 
  151000   -143340.25   -143402.19    61.938942    41.473768   -156390.95            0    975.26466    79.876731   -450.01845   -382.10231   -285.39405    -647.9694    40.121042    40.113395    48.138284 
  151100   -143340.39   -143402.16    61.769404    41.913981   -156465.84            0    1003.3279    79.658094     429.7155    713.65053    256.81303    353.49332    40.113125    40.146391    48.123977 
  151200   -143340.72    -143402.8    62.072097    41.581857   -156431.89            0    994.12017    80.048448   -474.22525   -458.07762   -678.94952   -251.87057     40.11761    40.152666    48.118235 
  151300   -143341.36   -143403.14    61.775433    41.305211   -156406.75            0    974.86681    79.665869    484.94685    252.58985    577.31606    655.63297    40.108393     40.13152    48.112891 
  151400   -143341.85   -143402.94    61.090106    41.549981   -156467.54            0    1010.9414    78.782068    -521.5258   -638.57243   -189.42225   -705.64024    40.130323    40.127901     48.15231 
  151500   -143342.12   -143403.58    61.459606    41.224966   -156422.69            0    980.83634    79.258576     639.9956    931.07707    713.66213    307.66075    40.116337    40.101169    48.143858 
  151600    -143342.1   -143403.94    61.841291    40.959984   -156408.91            0    986.06697    79.750799   -833.39685   -406.23986   -1344.2425   -718.02928    40.125772    40.106673    48.158096 
  151700   -143341.83   -143403.46    61.628451    41.111155   -156490.23            0     1010.188     79.47632    832.11725    550.56418    508.55799    1470.4316    40.145103    40.103778    48.139602 
  151800    -143341.3   -143401.81    60.509805    41.480717   -156386.09            0     975.3297     78.03371    -690.2528   -1289.3291   -187.71892   -562.02187    40.129973    40.107158     48.13729 
  151900   -143340.55   -143402.55    61.998787    41.267444   -156450.93            0    996.27998    79.953907    395.43629     413.8551      851.393   -47.245072    40.113874    40.124953    48.141585 
  152000   -143340.04    -143402.3    62.263862    42.080401   -156443.25            0    997.61655     80.29575    -183.1244    148.66049   -310.98853   -354.04718    40.108896    40.147115    48.132976 
  152100   -143339.91   -143401.55     61.64159    42.046269   -156403.25            0    977.51717    79.493265    67.224357    186.48398   -217.27655    264.83201    40.101943    40.131562    48.130997 
  152200   -143339.81   -143403.41    63.602906    41.320386    -156469.8            0    1007.7933    82.022586   -5.3740263   -189.79731   -9.9156586    216.38796    40.125476    40.116199    48.160429 
  152300   -143339.87   -143402.09    62.213108    41.885514   -156420.97            0    986.45278    80.230296   -96.642876   -217.48679    114.78178   -154.33874    40.119397    40.096096    48.168188 
  152400   -143339.92    -143401.9    61.989776    41.808887   -156421.24            0    984.87112    79.942286    138.19899    276.28541    249.90524   -78.163737    40.117651    40.097024    48.162565 
  152500   -143339.98   -143402.96     62.97947    41.654153   -156475.04            0    1012.1225      81.2186   -207.74871    17.168687   -402.28192   -204.71148    40.128059    40.131675    48.147023 
  152600   -143340.27   -143401.68    61.411688    42.030505   -156398.55            0     973.4845    79.196782    276.20214    252.49515    96.397961    513.09131    40.120874     40.12563    48.107234 
  152700   -143340.66   -143401.97    61.315328    41.640285   -156434.59            0    994.88582    79.072516    -358.3977   -608.86419   -232.41713   -202.35119    40.136016    40.144228    48.104904 
  152800   -143341.23   -143402.24    61.005093    41.819522   -156475.01            0    1006.8686    78.672435    491.58433    416.65018    836.27216    252.76834    40.120527    40.139578    48.126292 
  152900    -143341.8   -143403.32    61.520562     41.49346   -156372.52            0    969.36216    79.337186   -853.82751   -398.05029    -841.5856   -1289.6572     40.10234     40.12102    48.151303 
  153000   -143342.16   -143403.56    61.401219    41.420252   -156482.14            0    1004.1617    79.183281    1168.6956    1633.8027     466.1685    1439.9474    40.097427    40.123739    48.156637 
  153100   -143342.26   -143402.85    60.585164    41.533386   -156406.57            0    988.54667    78.130892   -1203.4468   -1618.3589   -1432.8958   -524.85658     40.12016    40.108669    48.171668 
  153200   -143342.02   -143403.14    61.118433    41.329228   -156433.96            0    983.74974    78.818599    943.99524    414.27158    1454.1897    996.70878    40.117674    40.097115    48.145272 
  153300    -143341.3   -143402.85     61.54874    41.410222   -156458.05            0    1008.2319    79.373525   -710.47912   -580.72286   -379.71853   -1138.0061    40.128573    40.134847    48.146322 
  153400   -143340.37   -143401.77    61.392694    41.875478    -156412.1            0    977.39864    79.172287    533.45188    920.38624    329.11379    381.96325    40.113466    40.145004    48.094432 
  153500   -143339.82   -143401.98    62.160882    41.931288   -156425.91            0    991.28211    80.162946   -426.01199   -340.06234   -752.92074   -154.48954    40.121087    40.158133    48.104429 
  153600   -143339.69   -143402.68    62.990399    41.735291   -156472.18            0    1007.4589    81.232695    289.51129    13.779177     345.4055    541.49855    40.131978    40.125351    48.132587 
  153700   -143339.73   -143402.33    62.595731     41.74412   -156387.06            0    971.21886    80.723728   -211.47129   -347.60264    82.551172   -337.77098    40.113357    40.097666    48.158799 
  153800   -143339.87   -143401.98     62.10884    41.872251   -156459.45            0    1002.2985    80.095832     103.6621    312.67358    175.40671   -145.62008    40.106987    40.096147     48.19957 
  153900   -143340.06   -143402.31    62.259041    41.636738   -156440.86            0    995.47564    80.289532   -64.731337    153.68179   -280.75392   -33.835736    40.105589     40.10408    48.183979 
  154000   -143340.31   -143401.72    61.415406     41.93792   -156399.92            0    976.20172    79.201576   -34.996859   -145.90427   -170.37223    244.15075    40.114285    40.113589    48.140438 
  154100   -143340.58   -143402.26    61.678395    41.675133   -156479.88            0     1012.727    79.540728     74.45719   -177.69635    255.67017    177.12248    40.131429    40.138735    48.127675 
  154200   -143340.87   -143402.65    61.783705    41.518446   -156409.46            0    981.68938    79.676536   -179.77378   -162.79508     24.91817   -369.87242    40.118553    40.144839    48.105288 
  154300   -143341.14   -143403.29    62.153023    41.504403   -156430.85            0    987.95713     80.15281    239.24024    545.16354    163.32515    41.290854    40.117595     40.13689    48.115233 
  154400   -143341.39   -143403.13    61.731905    41.343275    -156455.9            0    1004.5136    79.609735   -374.39125   -227.06548   -680.55842   -183.81761    40.133609    40.133132    48.131768 
  154500   -143341.56   -143402.24    60.679661    41.335529   -156408.93            0    975.56756    78.252757    510.52879     197.6342    462.70875    904.51935    40.120765    40.092052     48.14757 
  154600    -143341.4   -143404.16    62.757928    41.055274   -156441.36            0    999.89534    80.932899   -736.76491   -1105.7283    -270.5482   -799.90311    40.132063    40.097733    48.178441 
  154700   -143341.03   -143403.38    62.347505    41.335775   -156458.79            0    995.88305    80.403615    862.89431    1134.1307    1147.7128    341.10952    40.102925    40.112566     48.16016 
  154800   -143340.36   -143401.86     61.50731    41.620843   -156370.59            0    969.44676    79.320096   -906.54164   -335.98852   -1296.9694   -1053.0057     40.09209    40.144567    48.137848 
  154900   -143339.63   -143401.72    62.089742    42.232839   -156504.84            0    1019.0839    80.071203      768.512    773.24843    343.64784    1220.5875    40.112774    40.162186    48.117085 
  155000   -143339.28   -143401.47    62.185452    42.191108    -156396.4            0     979.1589    80.194631   -577.86782   -942.13381   -448.47714   -310.95038    40.126026    40.130364    48.119585 
  155100   -143339.14   -143400.93    61.785666    41.902206      -156419            0    982.27432    79.679065    379.58687    296.06139    634.47966    238.58742    40.128564    40.102892    48.134875 
  155200   -143339.14   -143402.25    63.109781    41.681929   -156483.22            0    1016.8512     81.38665    -299.6485   -91.749779   -295.58085   -478.84365     40.13772    40.106762    48.173678 
  155300   -143339.38   -143401.87    62.487392     41.76686   -156392.19            0    971.08386    80.584014    188.90737    335.54307    36.165467     228.6039    40.121352    40.093409     48.14514 
  155400   -143339.72   -143401.96    62.246408    41.923557    -156437.5            0    994.92259    80.273241   -168.24812   -255.48481   -210.58352   -4.7460568      40.1173     40.12375    48.147528 
  155500   -143340.22   -143401.99     61.76559    42.167613   -156471.85            0    1008.3597    79.653175      111.603   -4.0889112    260.25666    110.50712    40.108491    40.143432    48.146217 
  155600   -143340.74   -143402.19    61.444201    41.914776    -156383.4            0    968.68297    79.238711   -74.249648   -21.647651    51.316853   -218.60585    40.096055    40.140592    48.121287 
  155700    -143341.1   -143403.53    62.426821    41.482332   -156465.53            0    1005.7781    80.505902    11.181399    211.26473   -62.188771   -81.443592    40.113784    40.145905    48.134239 
  155800   -143341.32   -143403.34    62.016886    41.573976   -156424.33            0    986.81448    79.977248    11.787791    73.276203   -186.87538    181.10623    40.117121    40.122068    48.136641 
  155900   -143341.31   -143403.37    62.060573    41.256556   -156420.27            0    985.95399    80.033586   -97.903213    -317.7023   -83.796037    139.74306    40.127716    40.099139    48.150964 
  156000    -143341.2   -143402.36    61.160649    41.979213   -156465.62            0    1004.6767    78.873041    156.65968    16.203458    451.49613     35.45226     40.13788     40.08887    48.171895 
  156100   -143341.05   -143402.15    61.103273     41.54931   -156401.53            0    978.49798    78.799049   -267.77791   -40.259656   -167.31342   -561.31425    40.122032    40.108835    48.143059 
  156200   -143340.79   -143403.05    62.256111    41.753293   -156449.76            0    996.36964    80.285753    346.10606    662.92455    71.274879    336.54831    40.107499    40.136121    48.134507 
  156300   -143340.54   -143402.12    61.579591    41.858342   -156439.34            0    997.81209     79.41331   -432.06112   -529.92838   -675.45064   -59.088221    40.118011    40.155099    48.117012 
  156400   -143340.27   -143402.28    62.008168    41.666829   -156410.15            0    976.68408    79.966005    465.06489    124.03782     657.7326    647.46676    40.107973    40.130069    48.119835 
  156500   -143339.98   -143402.56    62.579247    41.472052    -156448.1            0    1002.5966    80.702471   -529.01213   -546.41677   -192.10595   -813.46704    40.116017    40.122905    48.165108 
  156600   -143339.77   -143402.24    62.470188    41.800054    -156451.6            0    996.06118    80.561828    519.29915     871.6673    485.67518    234.41489    40.106962     40.10358    48.172076 
  156700   -143339.64   -143402.13    62.489439    41.572659   -156402.04            0    980.99372    80.586654   -531.68166   -346.71796   -822.72305   -391.22227    40.118459    40.101133    48.164779 
  156800   -143339.59   -143402.42    62.833471     41.49718   -156461.36            0     1000.461    81.030319    494.35459    212.56837       413.31    889.38316    40.140891    40.111766    48.128423 
  156900   -143339.64   -143401.79    62.156594    41.844526   -156414.03            0     986.4868    80.157416   -464.34305    -724.7779    -144.4311   -491.90908    40.141736    40.117419    48.121304 
  157000   -143339.83   -143402.26    62.437368    41.701175   -156436.77            0    989.84881    80.519503    385.47768    539.09091    581.60036    67.992939    40.124018    40.128107    48.119044 
  157100    -143340.2   -143402.46    62.264322    41.514639   -156442.82            0    998.42707    80.296343   -341.65798   -16.142522   -551.86766   -424.59787    40.106168    40.147196    48.140311 
  157200   -143340.73   -143401.68    60.940746    41.983556   -156419.81            0    983.45906    78.589454    227.47895    209.01211   -9.0592807    516.06112    40.102951    40.113735    48.156137 
  157300    -143341.2   -143403.58    62.375957     41.18451   -156440.68            0     995.5662    80.440308   -155.72762    -417.4762   -78.636606    62.875853    40.120685    40.092618    48.180892 
  157400   -143341.57   -143403.11    61.543477    41.387256   -156443.61            0    995.04142    79.366738    63.562455   -11.652885    308.80327   -72.261131    40.127271    40.082943    48.181047 
  157500   -143341.65   -143402.98     61.32511    41.530688   -156407.79            0    979.31815     79.08513   -19.625158    204.56526    32.227618   -262.28955    40.119462    40.098885    48.153535 
  157600   -143341.48   -143403.57    62.091813    41.166611   -156463.54            0    1005.9621    80.073875   -81.168791     122.5408   -303.79945   -30.517302    40.128508    40.143379    48.119569 
  157700   -143341.22   -143402.48    61.256952    41.612082   -156423.97            0    986.02776    78.997233    119.13834   -5.2715341    3.2005095     394.9635     40.12395    40.152765       48.089 
  157800   -143340.66   -143401.89    61.222463    41.818483   -156416.69            0    985.27492    78.952756   -197.15269   -426.12384     3.407422   -135.77817      40.1191    40.150876    48.102344 
  157900   -143339.91   -143403.11    63.191698     41.70747   -156469.13            0    1005.5612     81.49229    294.27677    346.07647    569.95425  -0.93740017    40.116421    40.126471    48.149357 
  158000   -143339.55   -143402.17      62.6222    41.636468   -156413.16            0     985.8193    80.757864   -433.79272   -65.887269   -549.56732   -650.80848    40.106257    40.103918    48.178581 
  158100   -143339.38   -143401.75    62.369112    41.954871   -156426.97            0    983.73344     80.43148    601.04462    733.77804     170.3891    932.34644    40.104228    40.086905    48.181602 
  158200   -143339.35   -143402.56    63.212599    41.675455   -156444.44            0    1003.2443    81.519244   -837.34136   -1360.1857   -787.79809   -332.63397    40.145516    40.085026    48.182842 
  158300   -143339.56   -143402.14    62.579472    41.610288   -156429.88            0    983.05623    80.702761      920.137    549.99868    1493.1805    748.36292    40.133794    40.081415    48.143321 
  158400   -143339.82   -143401.28    61.460972    42.037032   -156416.88            0    990.97838    79.260338    -872.6772   -484.08958   -662.80852   -1437.8983    40.133804    40.129301    48.130736 
  158500   -143340.02   -143402.93    62.909637    41.785918   -156446.19            0    992.10299    81.128543    634.06843    1048.8823    310.60341     578.0456    40.104617    40.161746    48.099529 
  158600   -143340.24   -143402.47    62.231028    41.472232   -156409.85            0    983.68226    80.253406   -389.26579   -444.81508   -571.14036   -116.78096    40.100898    40.157096    48.117796 
  158700   -143340.45   -143402.58     62.12507    41.407195   -156461.39            0    1002.4117    80.116762    231.05649    28.879871    334.13137    364.46774    40.109561    40.128394    48.153278 
  158800   -143340.69   -143402.48    61.787892    41.661342   -156417.37            0    985.62172    79.681937   -200.88364   -211.52428   -29.543612   -327.93821    40.108622    40.096341    48.180237 
  158900   -143340.99    -143402.3    61.307069    41.726147    -156429.9            0    988.87252    79.061865    138.50059    281.71519    174.70244   -8.3846486    40.128401    40.076108    48.177948 
  159000   -143341.23   -143402.99    61.759976    41.292412   -156461.36            0    1005.0422    79.645935   -127.14382   -17.683089     -263.086   -66.641259    40.137868    40.100188    48.162112 
  159100   -143341.61   -143403.49    61.882592    41.196138   -156411.11            0    979.72264    79.804062    69.822863   -65.325495    31.540086    279.30933    40.129421    40.115658    48.121254 
  159200   -143342.18   -143403.51    61.329039    41.045166   -156431.92            0    990.37183    79.090197   -53.231067   -239.61152    107.98738    6.0475312    40.123327    40.140789    48.112229 
  159300   -143342.54   -143403.55    61.008546    41.332833   -156454.49            0    1000.9666    78.676889   -36.901046    88.461737    86.659628    -253.6116    40.117941    40.147252    48.121951 
  159400   -143342.57      -143404    61.428996    41.165333   -156409.24            0    978.73637    79.219102    103.79927    449.86047   -59.233605   -45.276409    40.100087    40.134175    48.130259 
  159500   -143342.23   -143402.95    60.725071    41.763008   -156433.81            0    993.21597    78.311318   -256.55529   -236.65947   -531.43292    32.651576    40.109006    40.123381    48.157154 
  159600    -143341.5    -143402.7    61.203379    41.556589   -156451.68            0    996.55929    78.928145    420.61101   -98.473939     589.1576    803.61762    40.123894    40.089558    48.170429 
  159700   -143340.87   -143402.27    61.402285     41.48141   -156403.16            0    981.98669    79.184655     -578.917    -829.2965   -92.697524   -784.16795    40.120452    40.084934    48.182851 
  159800    -143340.4   -143401.82    61.422253    42.050958   -156464.73            0    1001.1911    79.210407      630.071    1099.3181    728.82006    93.930287    40.100149    40.104277    48.183955 
  159900   -143340.07   -143402.58    62.511312    41.867311    -156406.7            0    984.53233    80.614862   -659.48115   -239.20613   -1041.3004   -664.15164    40.102148    40.134308    48.148516 
  160000    -143339.9   -143402.33    62.428727    41.746787   -156445.94            0    992.77727     80.50836     605.7646    379.18903    386.82695    1084.0341    40.112902    40.142934    48.112062 
Loop time of 73232 on 8 procs for 30000 steps with 12000 atoms

Performance: 0.014 ns/day, 1695.186 hours/ns, 0.410 timesteps/s
20.1% CPU use with 8 MPI tasks x no OpenMP threads

MPI task timing breakdown:
Section |  min time  |  avg time  |  max time  |%varavg| %total
---------------------------------------------------------------
Pair    | 62176      | 62738      | 63637      | 205.9 | 85.67
Bond    | 5.2551     | 5.4218     | 5.622      |   5.9 |  0.01
Neigh   | 244.34     | 244.69     | 244.97     |   1.4 |  0.33
Comm    | 9211.3     | 10109      | 10671      | 512.7 | 13.80
Output  | 2.0016     | 2.0205     | 2.0965     |   2.1 |  0.00
Modify  | 113.18     | 114.04     | 114.61     |   4.3 |  0.16
Other   |            | 18.23      |            |       |  0.02

Nlocal:    1500 ave 1514 max 1483 min
Histogram: 2 0 0 0 1 1 1 1 0 2
Nghost:    24374 ave 24391 max 24360 min
Histogram: 2 0 1 1 1 1 0 0 0 2
Neighs:    2.18157e+06 ave 2.20663e+06 max 2.1556e+06 min
Histogram: 2 0 0 1 1 1 1 0 0 2

Total # of neighbors = 17452549
Ave neighs/atom = 1454.38
Ave special neighs/atom = 1
Neighbor list builds = 253
Dangerous builds = 0
unfix NPT
variable STEP equal step
velocity all scale 105 temp CSequ
fix NPT all npt temp 105 105 0.100000 tri 1. 1. 0.100000
fix_modify NPT temp CSequ
run 10000
Memory usage per processor = 21.0152 Mbytes
Step TotEng PotEng KinEng Fnorm E_coul E_long E_bond Temp Press Pxx Pyy Pzz Lx Ly Lz 
  160000   -143320.91   -143402.33    81.421506    41.746787   -156445.94            0    992.77727    105.00153    867.61935    644.20146    654.23056    1347.5597    40.112902    40.142934    48.112062 
  160100   -143319.81   -143393.11    73.298819    44.905342   -156458.56            0    1002.5759    94.526478    677.56481    439.06099    476.66696    1153.6705    40.129562    40.139871    48.116525 
  160200   -143318.01   -143388.34     70.33329    46.595205   -156401.83            0    981.45668    90.702119    369.13153    178.12142     138.0049    826.44664    40.132788    40.118386    48.115194 
  160300   -143316.04   -143390.26    74.214076     45.62679   -156455.95            0    1009.0354    95.706798   -1.3249898   -131.04245   -167.74722    332.72175    40.152207    40.104485    48.148874 
  160400   -143314.01    -143388.3    74.294807    45.983193   -156414.78            0    993.13363    95.810909   -290.79098   -318.37461   -405.52925    -105.5882    40.138938     40.10126    48.156427 
  160500   -143311.77   -143388.21     76.44283     45.78733   -156379.59            0    978.51539    98.581009   -525.01589   -428.78635   -620.06413   -486.27405    40.123153     40.10477    48.160346 
  160600    -143309.6   -143388.13    78.537658    46.026017   -156433.32            0    1004.8456    101.28251    -604.7928   -512.81918   -603.19863   -657.23553    40.134741    40.118844     48.15937 
  160700   -143307.55   -143386.79    79.235164    46.828052    -156381.1            0    980.27807    102.18201   -480.36835   -319.06194   -455.17461   -623.97083     40.10931      40.1338    48.143273 
  160800   -143305.57   -143383.98    78.403278    47.285072   -156427.31            0     1001.561    101.10921   -342.17901   -157.80216   -273.05578   -552.30752    40.108844    40.144997    48.153736 
  160900   -143303.76   -143383.72     79.96192    47.169301    -156421.7            0      997.649    103.11924   -106.57551    95.016079   -28.151642   -341.09481     40.10443    40.127931    48.170636 
  161000   -143302.11   -143382.64    80.524021    47.427818   -156400.51            0    986.91195    103.84413    128.34035     247.7471      251.236   -71.423261    40.115469    40.109076     48.16147 
  161100   -143300.76   -143381.73    80.971392    47.937407   -156448.42            0    1007.5316    104.42106    306.78188    467.86514    416.19889    76.315711    40.120401    40.119036    48.167758 
  161200   -143299.73   -143381.28    81.550274    48.237239      -156406            0    986.80641    105.16759    501.91888    658.80143    656.50916    228.81229    40.120819    40.112971    48.146146 
  161300   -143298.89   -143381.24    82.348472    47.810389   -156420.74            0    993.08116    106.19695    596.36321    690.99829    775.64764    363.16672    40.130619    40.117469    48.134137 
  161400   -143298.42   -143381.38    82.959765    48.281088    -156451.3            0    1007.6477    106.98528    570.07275    637.49599    759.90609     355.3194    40.126298    40.128559    48.143214 
  161500   -143298.43   -143381.02    82.594583    47.780925   -156398.44            0    985.32905    106.51434    282.28012    209.09448    472.41926    205.96377     40.12078    40.113551    48.147154 
  161600   -143298.84   -143381.61    82.769293    47.674902   -156406.08            0    992.90025    106.73964   -283.07106   -514.23713    -156.6273   -133.61125    40.129877    40.108905    48.162763 
  161700    -143299.5    -143381.6    82.102821    47.949826   -156400.93            0    994.95649    105.88016   -839.61215   -1205.8019   -832.16863   -436.87753    40.129512    40.116611    48.165801 
  161800   -143300.43   -143380.52     80.09124    47.993845   -156387.52            0     990.1693    103.28601   -1010.5511   -1347.2335   -1086.8566   -554.38302    40.123207    40.124246    48.162405 
  161900   -143301.34    -143382.2    80.860441    47.907216   -156403.87            0    995.07545    104.27798   -845.78545    -1157.317   -925.43915   -412.36143     40.12557    40.137042    48.149973 
  162000   -143302.14   -143384.41    82.272807    47.269668   -156399.78            0    990.72954    106.09937   -505.50184   -719.19565   -633.59997   -124.27237    40.120579    40.147078    48.126967 
  162100   -143302.79   -143384.29     81.50567    47.074738   -156418.06            0    996.56511    105.11007   -188.73209   -303.01084   -330.61308    105.46288    40.123018    40.152185    48.118964 
  162200   -143303.18   -143383.01    79.820729    47.579368   -156425.14            0    997.95324    102.93716    23.165438   -28.145194   -80.551036    219.94854    40.137402    40.130356    48.128999 
  162300   -143303.26   -143383.34     80.07273    47.431477   -156411.53            0    991.09406    103.26214    172.25847    167.85206    83.696451    309.20892    40.140785    40.106596    48.139247 
  162400   -143302.95   -143383.93    80.979441    47.130745   -156428.88            0    998.13791    104.43144    242.32772    292.55314    193.30884    282.11106    40.124663    40.097004    48.177744 
  162500   -143302.42   -143382.59    80.167721    47.297383   -156422.84            0    995.07578    103.38464    273.05214    337.22453    244.27715    278.88673    40.105574    40.103625    48.191735 
  162600    -143301.7   -143382.45    80.757665    47.681841    -156408.9            0    989.38704    104.14544    227.73007    338.00378    184.19561    203.70977    40.084657    40.124862     48.18371 
  162700   -143300.89   -143383.77    82.875695    47.058026   -156419.42            0     994.6501    106.87686    110.84741      198.847    141.64718    37.201564     40.09584     40.14105    48.160172 
  162800    -143300.2   -143383.77    83.567214    47.422922   -156411.16            0    992.54375    107.76865   -31.870122    118.63519    35.299909   -204.35993    40.102899    40.150139    48.138723 
  162900   -143299.71   -143381.85    82.139931    48.230652    -156414.3            0    996.21944    105.92802   -242.98739   -101.43644   -107.71828   -477.98748    40.139057    40.139311    48.117941 
  163000   -143299.39   -143381.73    82.335574     47.91707   -156405.84            0    994.28094    106.18032   -475.51081   -327.73438   -229.94883   -826.73723     40.14954    40.123911    48.126073 
  163100   -143299.34   -143381.87    82.527408    47.636895   -156408.29            0    997.00192    106.42771   -677.45023   -440.03236   -460.60752   -1089.5367    40.132675    40.122859    48.154163 
  163200    -143299.6   -143381.94    82.345765    47.892841   -156393.57            0    990.09744    106.19346   -749.32674   -564.10385   -422.19215   -1217.7928    40.112003    40.114956    48.184306 
  163300   -143300.12   -143382.16    82.037172    47.933652   -156403.28            0    993.57215     105.7955    -538.3235   -404.96919   -278.57997   -889.06082    40.104913    40.109744    48.195458 
  163400   -143300.76   -143382.18    81.418896    47.671618   -156423.49            0    999.44267    104.99816    -127.1401    -133.7605    89.492295   -291.84404    40.111424    40.108377    48.188716 
  163500   -143301.38   -143383.16    81.776889    47.478236    -156408.7            0    988.90527    105.45983    317.24411    175.51927    411.03394    408.42761    40.131143    40.099387    48.153364 
  163600   -143301.98   -143382.62    80.647452    47.571307   -156427.34            0    995.02839    104.00331     627.8929    407.63943    564.12916    953.13841      40.1486    40.113267    48.118208 
  163700    -143302.4   -143382.47    80.068858    47.612788   -156431.02            0    996.80519    103.25715    597.08529    354.73525    486.47456    993.95265    40.138449    40.132088    48.112077 
  163800   -143302.61   -143383.41    80.801193    47.177012   -156419.22            0    993.10468    104.20157    373.02876    196.96758    240.01018    727.20879    40.119186    40.146473    48.115471 
  163900   -143302.58   -143383.72    81.135277    47.152568   -156418.12            0    993.70029    104.63241    168.72647    96.066396    72.973321    377.11176    40.101488    40.141243    48.149131 
  164000   -143302.36   -143382.15     79.79024      47.6775   -156413.39            0    993.11957    102.89784     40.13963  -0.36649826   -76.749028    237.58316     40.09822    40.128211    48.170694 
  164100   -143301.76   -143383.08    81.315151    47.482026   -156405.64            0    990.45791    104.86437   -58.027269    -102.6101   -99.837678    71.813032    40.110691    40.106213    48.178853 
  164200    -143301.1      -143382     80.89689    47.724556   -156428.26            0    1001.6187    104.32498   -162.85105   -166.74182   -237.50829   -41.201689    40.138742    40.104519     48.16545 
  164300    -143300.5   -143382.26    81.754009    47.667876   -156394.56            0    987.01917    105.43033   -229.91013   -237.60402   -281.18481   -128.57844    40.153897    40.103425    48.131288 
  164400   -143300.11   -143382.67    82.555858    47.638685   -156415.56            0    997.11498     106.4644   -265.36558   -211.65022   -283.23017   -258.94306    40.158651    40.117888    48.119379 
  164500   -143299.98   -143381.11    81.126107    47.810287   -156414.26            0    995.70997    104.62058   -238.64571   -172.77998    -242.1846   -262.39092    40.141804    40.133108    48.124416 
  164600   -143299.91   -143381.78    81.869709    47.510437    -156404.4            0    990.28817    105.57954   -110.77175    30.931228    -38.70959   -284.87928    40.127807    40.117637    48.148345 
  164700   -143300.02   -143382.37    82.355247    47.814424   -156433.97            0    1002.3026    106.20569    96.892711    293.02973    219.00091   -177.42605    40.112594    40.125947    48.167953 
  164800   -143300.36   -143381.41    81.055784    48.311291   -156417.78            0    993.80025    104.52989    364.64162    621.27852    557.06463   -40.096629    40.098467    40.123174    48.168726 
  164900    -143301.1   -143383.19    82.089282    47.273365   -156425.28            0    994.20699     105.8627    577.92345    818.18469    887.72098     71.81242    40.103472    40.117853    48.168764 
  165000    -143302.1   -143383.21    81.110549    47.555935    -156437.2            0     999.3092    104.60052    650.47948    893.80269    913.97779    184.84431    40.108413    40.121335    48.161719 
  165100   -143302.73   -143383.36    80.629384    47.580211   -156416.38            0    990.53701    103.98001    568.79878    733.21434    825.75944    187.08638    40.115231     40.11581    48.149576 
  165200   -143302.92   -143383.24    80.315447    47.447094   -156426.01            0    996.35806    103.57515    280.20572    383.25978    466.84739    29.152846     40.13642    40.120751    48.134319 
  165300    -143302.8   -143384.59    81.795716    47.010367   -156409.92            0    991.43322    105.48411   -30.535785   -47.587755    151.41192   -154.34768    40.155245    40.104304    48.128753 
  165400   -143302.53   -143384.07    81.543117    47.369003   -156409.54            0     993.9922    105.15836    -350.1181   -497.12541   -248.13636   -262.47374    40.152918    40.100788    48.145129 
  165500   -143302.15   -143383.29    81.146671    47.591839   -156414.86            0    998.00715     104.6471    -540.4998   -698.33982    -524.8461   -356.79773    40.141889    40.109062     48.15833 
  165600   -143301.68   -143384.16    82.480719    47.203464   -156392.77            0    987.59937     106.3675   -536.04479   -730.05608   -597.47123   -238.66268    40.125102    40.109298    48.164611 
  165700   -143301.31   -143382.65    81.339815    47.631188   -156398.39            0    989.45347    104.89618   -381.38462   -612.31241   -510.27207    19.747717    40.118944    40.121542    48.157719 
  165800   -143301.02    -143382.1    81.083744    47.708544   -156434.25            0      1004.69    104.56595   -175.12218   -289.30741   -273.98402       78.924    40.119936    40.129328    48.161379 
  165900   -143300.84   -143381.97    81.123228    47.799879   -156400.33            0     988.2487    104.61687   -21.528253   -78.821718   -98.076826    153.29544    40.126224    40.125883    48.133076 
  166000   -143300.85    -143382.6    81.755455    47.457504   -156411.72            0    992.38699    105.43219    41.589645    -27.33144   -17.558655    212.12807    40.142397    40.120203    48.127117 
  166100   -143300.83   -143382.67    81.838843    47.413387   -156424.78            0    998.01969    105.53973    100.00961    60.898228    41.916544    239.90554    40.141324    40.117971    48.136096 
  166200    -143300.8   -143382.35     81.55563    47.710649   -156396.21            0    984.41595     105.1745    137.30856    130.12459    104.93906    220.22848    40.127816    40.107653    48.148947 
  166300   -143300.81   -143381.89    81.078093    47.540212   -156433.92            0    1002.0942    104.55866     95.58834    86.360116      122.535    121.41107    40.138251    40.087267    48.183452 
  166400   -143300.94   -143382.03    81.088928    47.664633   -156411.97            0    992.71639    104.57264    75.241229    126.28608    71.645101    71.509765    40.125616    40.084338    48.188701 
  166500   -143301.15   -143382.21     81.06437    47.447986   -156406.42            0     990.1649    104.54097    13.574234    107.97917    12.665858   -38.357617    40.123555    40.092992    48.180333 
  166600   -143301.48    -143382.4     80.92417      47.5595   -156423.79            0    999.61492    104.36016   -126.46206   -15.541352   -102.65009   -221.75535    40.110505    40.131992    48.160016 
  166700   -143302.25   -143382.61    80.360443    47.306035   -156398.55            0    988.62208    103.63318   -318.38893    -145.5204   -262.18986   -507.91755     40.11022    40.160347    48.120372 
  166800   -143303.04   -143384.74    81.700444    47.014505   -156400.24            0    990.06267    105.36125   -472.64676    -226.8869   -363.00974   -787.08154    40.117156    40.163927    48.110985 
  166900   -143303.66   -143383.79    80.121339    47.119367   -156421.38            0    999.80918    103.32483   -471.65221   -249.72919   -288.31116   -834.09469     40.13167    40.152418    48.120333 
  167000   -143303.89   -143382.15    78.258612     47.83498   -156395.77            0    987.36313    100.92265   -317.94555   -113.35912   -61.333045   -736.17583    40.132367    40.117547    48.143197 
  167100   -143303.55   -143383.43    79.881526    47.417895   -156406.31            0    990.01214    103.01557   -49.491994    90.770004    206.71419   -404.69646     40.12491    40.092118    48.178761 
  167200   -143302.93   -143382.32    79.382832    47.666281   -156430.29            0     1000.096    102.37245    220.07496    243.66868    497.01001   -37.995765    40.121394    40.079071    48.203104 
  167300   -143301.95   -143383.01    81.056559    47.514627   -156403.16            0    985.42127    104.53089    459.09229    468.55006    587.30693    366.20151     40.09947    40.094431      48.1907 
  167400   -143301.16   -143383.55    82.388918    47.450345   -156441.31            0    1002.3399    106.24911    556.43251    412.16238     636.2087    664.93645     40.11372    40.132615    48.144655 
  167500   -143300.89   -143383.13    82.239696    47.561619   -156433.07            0    998.63351    106.05667    494.57943    339.32976    454.01724    731.99334    40.116248     40.15767    48.111609 
  167600   -143300.75   -143383.28    82.536564    47.276741   -156398.71            0    983.89821    106.43951    314.91006    111.16192    232.80351    640.37991     40.12883     40.16211    48.078268 
  167700   -143300.63   -143382.69    82.065564    47.809942   -156417.86            0    994.83328    105.83211    89.004366   -110.88162    -42.03745    462.59176    40.128423    40.166291    48.090206 
  167800   -143300.58    -143382.1    81.528916    48.161961   -156413.57            0    994.44745    105.14005   -77.524375   -235.56506   -180.67217    226.61978    40.127679    40.131072    48.136029 
  167900    -143300.6   -143381.79    81.193588    47.879097   -156417.67            0    997.06714    104.70761   -143.32998   -262.36749   -244.26413    121.51856    40.123264    40.094054    48.189477 
  168000    -143300.7   -143382.66    81.967054    47.542079   -156414.29            0    995.29256    105.70507   -169.12226   -212.24047   -227.81589   -25.281202      40.1277    40.066047    48.216338 
  168100   -143300.94    -143382.3    81.357309    47.596199   -156398.09            0    987.32949    104.91874   -125.42607   -74.734325   -233.56062   -28.222504    40.130136    40.077657    48.190182 
  168200   -143301.27   -143383.47     82.19917    47.435524   -156415.04            0    994.33739    106.00441   -89.141706   -97.501854   -132.61176    4.9199874    40.155821    40.102622    48.137734 
  168300   -143301.88   -143382.75    80.877168    47.664942   -156422.98            0    997.95942    104.29955   -62.007359   -3.7387816   -109.25266    -28.93039    40.137213       40.155    48.100418 
  168400   -143302.56   -143383.93    81.367229    47.075364   -156388.22            0    981.11985    104.93154   -2.7819474    46.210777   -1.7921188   -8.0670371    40.116863    40.179522     48.07352 
  168500   -143303.05   -143383.81    80.763805    47.424174   -156447.92            0    1008.2404    104.15336    56.335591    215.46997     67.88112   -71.244772    40.109433    40.183115    48.109913 
  168600   -143303.34   -143383.19    79.850677    47.458181   -156407.93            0    988.71367    102.97578    266.46709    456.92548    403.19897   -18.206647    40.110114    40.131906    48.141075 
  168700    -143303.3   -143383.49    80.191735    47.235197    -156408.1            0    986.54814    103.41561    486.97552    731.92639    819.28983   -50.346211    40.120133    40.076529    48.190271 
  168800    -143302.8   -143383.42    80.622741     47.18464   -156446.29            0    1004.1774    103.97144     487.1303    705.74173    919.47374   -121.10234    40.134378    40.058725    48.216783 
  168900    -143301.7    -143382.9    81.193862    47.600912   -156400.81            0    985.48254    104.70796    332.69859    492.29167      826.934   -280.48987     40.13499    40.051419    48.201445 
  169000   -143300.61   -143382.79    82.173878    47.787621   -156424.83            0    998.18529    105.97179    59.863817    129.34486     508.3306   -414.45959    40.132585    40.094945     48.17518 
  169100   -143300.18   -143383.46    83.272132     47.57251   -156407.99            0     992.0346    107.38811    -181.0803   -184.72182    177.70082   -489.22808    40.118143    40.144446    48.131716 
  169200   -143300.11   -143382.34    82.231957    47.513823   -156394.83            0     987.8327    106.04669   -329.49769    -362.1639   -134.36068   -447.27689    40.100477    40.172949    48.113777 
  169300   -143300.11    -143382.3    82.191657    47.971125   -156419.48            0    999.00925    105.99472   -362.58114   -435.74905   -278.61783   -332.05639    40.104023    40.179574    48.118496 
  169400   -143300.29   -143382.42     82.12734    47.912776   -156390.98            0    986.13164    105.91178   -269.21154   -335.48738   -272.00914   -158.54447    40.097446    40.136042    48.156055 
  169500   -143300.68   -143382.21     81.52989    48.055669   -156418.38            0    997.48285     105.1413    -176.8268   -239.47485    -234.4364   -12.327163     40.12055    40.092867    48.196014 
  169600   -143301.16   -143382.71    81.546702    47.649918   -156426.64            0    1000.2122    105.16298   -55.856952   -123.06831   -112.30413    111.33983    40.147767    40.066451    48.195117 
  169700   -143301.62    -143383.9    82.280038    47.231029      -156386            0    980.04428     106.1087    45.326299   -25.235779   -11.895171    215.04724    40.152016    40.067851    48.161916 
  169800   -143302.17   -143382.68    80.516163    47.597034   -156439.85            0     1004.449      103.834    29.341165   -49.833697    -59.89014    242.47269    40.155381    40.117517    48.132737 
  169900   -143302.64   -143382.62    79.978333    47.919713   -156421.03            0    996.99413    103.14041    76.532622    38.629921    36.104471     201.6844    40.131952    40.152869    48.100766 
  170000   -143302.95   -143383.07    80.116843    47.543086   -156396.53            0    985.08178    103.31903    53.798844    91.717423   -45.112275    155.59251    40.103786    40.179258    48.092308 
Loop time of 24608 on 8 procs for 10000 steps with 12000 atoms

Performance: 0.014 ns/day, 1708.888 hours/ns, 0.406 timesteps/s
20.2% CPU use with 8 MPI tasks x no OpenMP threads

MPI task timing breakdown:
Section |  min time  |  avg time  |  max time  |%varavg| %total
---------------------------------------------------------------
Pair    | 20417      | 21049      | 21442      | 208.5 | 85.54
Bond    | 1.7348     | 1.8327     | 2.0344     |   6.7 |  0.01
Neigh   | 145.91     | 146.24     | 146.59     |   1.8 |  0.59
Comm    | 2987.3     | 3380.2     | 4011.8     | 520.5 | 13.74
Output  | 0.66048    | 0.66669    | 0.68827    |   1.1 |  0.00
Modify  | 24.627     | 24.757     | 24.882     |   1.6 |  0.10
Other   |            | 5.686      |            |       |  0.02

Nlocal:    1500 ave 1509 max 1487 min
Histogram: 2 0 0 0 1 0 2 0 0 3
Nghost:    24374 ave 24387 max 24365 min
Histogram: 3 0 0 2 0 1 0 0 0 2
Neighs:    2.18272e+06 ave 2.19964e+06 max 2.16021e+06 min
Histogram: 1 1 0 1 0 1 0 1 1 2

Total # of neighbors = 17461778
Ave neighs/atom = 1455.15
Ave special neighs/atom = 1
Neighbor list builds = 150
Dangerous builds = 0
unfix NPT
fix NPT all npt temp 105 105 0.100000 tri 1. 1. 0.100000
fix_modify NPT temp CSequ
run 30000
Memory usage per processor = 21.0152 Mbytes
Step TotEng PotEng KinEng Fnorm E_coul E_long E_bond Temp Press Pxx Pyy Pzz Lx Ly Lz 
  170000   -143302.95   -143383.07    80.118091    47.543086   -156396.53            0    985.08178    103.32064    53.816049    91.385261   -44.766264    156.64238    40.103786    40.179258    48.092308 
  170100   -143302.82   -143381.95    79.129918    47.642778   -156439.07            0    1004.7013    102.04629      80.0087    58.942958    58.032944    162.47335    40.109892    40.169432    48.120857 
  170200   -143302.31   -143383.19    80.875436    47.591447   -156402.23            0    987.75268    104.29732    131.46199    219.33097    83.351081    136.15853    40.097695    40.123285    48.165184 
  170300   -143301.53   -143381.86    80.327535    48.080288   -156415.42            0    993.71983    103.59074    127.40199    227.11181    84.780663    112.88345    40.121153    40.087959     48.18973 
  170400   -143300.71   -143381.98    81.270824    47.999608   -156420.63            0    996.16614    104.80721    132.02112    330.62309    167.86643   -62.527141     40.13272    40.073665    48.195817 
  170500   -143300.33   -143381.87    81.543182    47.778693   -156409.08            0    991.50236    105.15844    52.044524    422.37438    17.630506   -242.23492    40.131853    40.099781    48.161801 
  170600   -143300.27   -143381.72    81.451796    47.890693   -156425.33            0     1000.432    105.04059    -158.3441     249.6886   -50.226964   -631.29051     40.13522     40.12462    48.144471 
  170700   -143300.29   -143382.58    82.285641    47.724814   -156412.21            0    995.57892    106.11592   -334.61704    51.931248   -155.29628    -856.6802    40.115197    40.147837    48.137602 
  170800    -143300.5   -143382.89    82.386293     47.65917   -156396.04            0    987.91821    106.24572   -403.69507   -90.050628   -152.84629   -922.90625     40.10098    40.148833    48.148223 
  170900   -143300.71   -143383.37    82.663402    47.276782   -156412.19            0    995.81512    106.60309   -356.90901   -192.64893   -30.379447   -805.65133    40.092541    40.130936    48.183348 
  171000   -143300.96   -143381.99    81.029036    47.727837   -156416.37            0    997.46836     104.4954   -269.66946   -266.84505    50.946174   -551.92469    40.113688    40.108147    48.186483 
  171100    -143301.3   -143381.54    80.239696    47.757481   -156393.05            0    985.13313    103.47746   -106.15953   -139.38355    184.06898    -321.2269    40.116077    40.083206    48.197027 
  171200   -143301.61   -143383.22    81.613859    47.629562   -156415.88            0    994.52331    105.24959     47.88281   -142.75112    281.85359    49.666035    40.138306    40.085601    48.172416 
  171300   -143302.04   -143382.39    80.355361    48.051175   -156443.44            0    1006.5889    103.62663    113.48128   -156.24185    265.29651    277.85984    40.152125    40.104972    48.148363 
  171400   -143302.68   -143383.07    80.398318    47.260151   -156392.22            0    982.18579    103.68202    164.88517   -46.780756    244.12179     342.9503    40.131682    40.118267    48.126398 
  171500   -143303.38   -143383.73    80.342001    47.118001   -156433.73            0    1001.6311     103.6094    108.79571   -33.522395    30.060376    372.31053    40.128406    40.145566    48.120285 
  171600   -143303.99   -143384.03    80.042566    47.121433    -156424.6            0    997.71525    103.22324    48.290705    -48.20178    41.133878    193.23727    40.119495    40.137265    48.137579 
  171700   -143304.34   -143384.24    79.896156    47.191645   -156400.38            0    986.65233    103.03443    40.200847     4.168567   -45.491127    201.87772    40.106681    40.131592    48.144995 
  171800   -143304.33   -143383.85    79.519363      47.6648   -156442.12            0    1005.7233    102.54852   -22.036195   -64.382457   -96.589672    133.28021    40.121809    40.113405    48.177176 
  171900   -143303.65   -143383.73    80.081792    47.404624   -156401.36            0    987.55123    103.27383   -20.737978   -11.319889   -91.432856    84.450761    40.113636    40.092355    48.188132 
  172000   -143302.41   -143384.29    81.883968    47.545735   -156397.01            0    986.11137    105.59792   -42.974493   -31.272851   -125.59078    73.356135    40.132821    40.091038    48.164077 
  172100   -143301.48   -143383.99    82.505591    47.353537   -156453.87            0    1012.3028    106.39957   -73.108898   -27.661389   -96.555917   -53.502932    40.143105    40.118409    48.153052 
  172200   -143301.11   -143382.95    81.838122    47.532579   -156381.71            0    979.59179     105.5388   -80.145548    73.140013   -215.80966   -55.277828    40.130149    40.139162     48.10396 
  172300   -143300.88   -143382.09    81.208278    47.671121   -156415.22            0    996.20703    104.72655   -170.46156    26.498419   -273.09567   -223.45647    40.134757      40.1546    48.101872 
  172400   -143300.61    -143383.2    82.595424    47.589898    -156414.2            0    995.74507    106.51542   -181.59503    192.77231   -232.98358   -462.49829    40.116173    40.157394    48.118795 
  172500   -143300.41   -143382.64    82.228591    47.578372   -156400.18            0    988.34176    106.04235   -58.893099    391.64441   -91.962797   -431.71048    40.116664    40.128973    48.142324 
  172600   -143300.34   -143380.86    80.521435    48.076494   -156430.64            0    1001.6784     103.8408    61.352996     496.3024    283.39543   -551.22295    40.115929    40.099943    48.193899 
  172700   -143300.34   -143382.44     82.10446    47.764475   -156399.13            0    985.24613    105.88227    270.27048    589.20237    610.74561   -347.87946    40.111336    40.081949    48.195176 
  172800   -143300.57   -143382.78    82.208245    47.370308   -156420.09            0    993.65309    106.01611    378.20031    559.41797    872.22426   -251.36916    40.103651    40.090031    48.203761 
  172900   -143301.02   -143382.16    81.132174    47.639453   -156434.36            0    1000.5336    104.62841    356.77703    282.89075    905.95269   -73.191385    40.118719    40.112144    48.168581 
  173000   -143301.52   -143382.89    81.369494    47.464507   -156409.43            0    989.79072    104.93446    269.93362    11.233051    777.64545    61.668392    40.130628    40.120665    48.130286 
  173100   -143302.17   -143383.74    81.573777    47.468848    -156414.1            0    992.66327     105.1979    116.72164   -210.76982    507.31991    94.922308     40.14109    40.128138    48.116036 
  173200   -143302.75   -143382.32    79.563592    47.361289   -156412.72            0    993.17125    102.60556    -31.42462   -420.62363     236.6444    132.21506    40.153191    40.130802    48.103858 
  173300   -143302.99   -143383.22    80.222831    47.460044   -156412.24            0    993.87708    103.45571   -132.44323    -451.4089    26.539641    68.964806    40.145742    40.122635    48.122514 
  173400   -143303.07   -143383.86    80.797105     47.22061   -156414.58            0    994.26323     104.1963   -154.33879   -351.16046   -144.77153    76.433206     40.13271    40.121382    48.142731 
  173500    -143302.8   -143384.11    81.309372    47.121274   -156387.92            0    982.10634    104.85692   -137.52381    -286.2213   -166.37634     84.44815    40.122949    40.107999    48.153742 
  173600   -143301.88   -143382.98    81.102303    47.341065   -156423.76            0    999.27899    104.58989   -127.29918   -262.47747    -175.0716    98.948419    40.125494    40.110444    48.168527 
  173700   -143300.65   -143382.44    81.796212    47.749449   -156414.22            0    994.82058    105.48475   -53.558321   -107.93455   -141.27727    132.00607     40.13192    40.111199    48.153405 
  173800   -143299.94   -143382.92    82.978256    47.543811   -156402.06            0    988.31924    107.00912   -11.601957   -3.0582999   -77.295717    88.311742     40.13556    40.113219    48.139068 
  173900   -143299.74    -143380.9    81.161149    48.015307   -156415.06            0    994.71234    104.66577    48.366492    124.50552   -58.595294    123.24064    40.147434    40.119886    48.123617 
  174000    -143299.7   -143381.37     81.67143    48.144035   -156415.38            0    994.96758    105.32383    66.855256    155.52992   -25.304532    113.51056    40.145107    40.118912    48.125707 
  174100   -143299.91   -143383.09    83.180391    47.256026   -156425.27            0    998.37478     107.2698    6.5989107    73.163036   -47.033627    35.803291    40.129099    40.123746    48.148183 
  174200   -143300.33   -143382.94    82.607441    47.575871   -156398.91            0    986.74272    106.53092    10.146719    88.509711   -32.315934    18.040732    40.112962    40.118725    48.156872 
  174300   -143300.81   -143382.49    81.683466    47.940557   -156413.46            0    993.92467    105.33936    -6.568252    88.494774   -4.8235291   -57.954117    40.105818    40.118329    48.173376 
  174400   -143301.52   -143381.63    80.115883    48.068889   -156413.73            0     994.0266    103.31779   -23.070872   -2.6164961    -16.69524   -3.7581896     40.12518    40.110867    48.161262 
  174500   -143302.04    -143382.7    80.659173    47.650191    -156395.7            0    985.28278    104.01842   -11.638211    27.533092    28.029967   -47.064299    40.131767    40.103845    48.150408 
  174600    -143302.3   -143383.61    81.306678     47.47014   -156420.03            0    996.37212    104.85345   -49.026509   -41.871253   -12.712762   -50.223656    40.148174    40.126557    48.118402 
  174700   -143302.42   -143381.89    79.464453    47.644262   -156412.38            0    994.09572    102.47771   -79.496956    -46.14374   -49.989164   -99.311531    40.141411    40.150796    48.093818 
  174800   -143302.23   -143382.56    80.330155    47.486347   -156407.99            0    991.51133    103.59412   -66.027233   -35.363033   -26.881747   -92.112515    40.127455    40.168221    48.087127 
  174900   -143301.86    -143381.5    79.645622    48.080434   -156413.36            0    993.71227    102.71134   -15.646154    -34.30969    1.5454049    27.885554    40.122054    40.159238    48.106889 
  175000   -143301.22   -143380.91    79.687438    48.040189   -156407.97            0    991.13127    102.76527    89.884169   -13.461662    180.10728    147.19984    40.118021    40.127848    48.142687 
  175100   -143300.02   -143382.84     82.81506    47.751809   -156425.25            0    998.01745    106.79866    131.46522   -41.937376    247.39434    235.87706    40.134036     40.09937    48.165806 
  175200   -143299.06   -143380.92    81.852705    47.966101   -156396.85            0    984.88766    105.55761    163.52834   -40.218857    217.39732    359.92641    40.139032    40.082846    48.166655 
  175300   -143298.65   -143381.78    83.131569     47.78117   -156404.13            0    989.40854    107.20683    143.65638   -113.35401    211.05553    375.95936     40.14074     40.08821     48.15837 
  175400   -143298.76   -143380.86    82.101091    48.142056   -156432.55            0    1003.5861    105.87793    19.251179   -212.70278   -15.149075    328.62775    40.140648    40.119736    48.141492 
  175500   -143299.12    -143380.6    81.483336    47.965891   -156398.22            0    988.53985    105.08127   -69.060977   -259.34281   -86.564528    183.09988    40.118344    40.140747    48.125871 
  175600   -143299.49   -143382.63    83.148844    47.635927   -156415.43            0    996.17745    107.22911   -197.13878   -261.83924   -338.48509    49.562012    40.115231    40.160543    48.119488 
  175700   -143300.15   -143381.39     81.24543    47.762417   -156408.69            0    993.99832    104.77446   -338.67743   -305.57346   -552.61156   -115.72415    40.110737    40.159874    48.128846 
  175800   -143300.88   -143382.75    81.877213    47.453014   -156395.66            0    988.60679    105.58921   -395.03487   -135.03655   -658.04334   -348.68773    40.109972    40.146659     48.13625 
  175900   -143301.44   -143383.23    81.786231     47.40461   -156417.23            0    997.42301    105.47188   -363.65081     5.122049   -580.31372   -471.44046    40.130022     40.12496    48.150613 
  176000   -143301.81   -143382.56    80.744957    47.846729   -156380.52            0    979.83667    104.12905   -178.81792    298.32561   -339.34448   -452.77726    40.118743    40.108731    48.155713 
  176100   -143302.02   -143382.49    80.469192    47.523943   -156430.84            0    1001.9896    103.77342    1.2400534     444.4215   -108.88448    -289.0876    40.122106    40.120679    48.159742 
  176200   -143302.17   -143383.41    81.236531    47.358421   -156414.99            0    992.87658    104.76299    101.77869    397.54767    97.036076   -143.10029    40.110197    40.128445    48.155201 
  176300   -143302.12   -143382.79     80.67821    47.549986   -156387.02            0     980.4705    104.04297    105.00706    268.94609    156.00206   -67.690185    40.115616    40.126419     48.13425 
  176400   -143301.72   -143382.64     80.91329    47.720135   -156450.02            0    1009.8061    104.34613    71.775469     209.3603    116.19977   -67.121344    40.127722     40.14486      48.1346 
  176500      -143301   -143382.43    81.426835    47.981425   -156399.77            0    986.98809     105.0084    94.788224     196.4033    138.73823   -8.7029018    40.123607    40.140578    48.114907 
  176600   -143300.03   -143381.96     81.93842    47.686941   -156414.19            0    993.65228    105.66814    68.782169    141.42387    141.93468   -34.560017    40.122295    40.140104    48.127319 
  176700   -143299.23      -143382    82.771788    47.925367   -156423.24            0    998.39813    106.74286   -3.6162928   -20.409548    40.843612    13.033015    40.125245    40.135641    48.137298 
  176800   -143298.97   -143380.64    81.670466    48.200617   -156389.21            0    984.16158    105.32259   -46.510713   -111.27303    54.217191   -35.350819    40.110172    40.123591      48.1501 
  176900   -143299.02    -143381.1    82.080182    48.057863   -156429.31            0    1002.9284    105.85096   -130.42536   -244.54663   -101.06769    -2.125544    40.108768    40.129018    48.171229 
  177000    -143299.3   -143381.64    82.344356    47.800823   -156400.65            0    990.13492    106.19164   -221.02481   -490.32049   -181.10424    50.085194    40.110335    40.129613     48.15523 
  177100   -143299.84   -143381.63    81.791638    47.932489   -156393.33            0    987.21486    105.47886   -280.42986   -646.89346   -274.55213    123.73461    40.113585    40.126952    48.151384 
  177200   -143300.31   -143381.81    81.499672    48.030799   -156430.55            0    1003.8993    105.10233   -294.33842   -748.90434   -333.29602    242.50822    40.136308    40.125464    48.148772 
  177300   -143300.67   -143382.91    82.239716    47.405064   -156386.63            0    981.91436     106.0567   -147.61044   -551.04973   -189.93703    343.96879    40.143025     40.10818    48.132292 
  177400   -143300.97   -143382.31    81.338131    47.277052   -156412.85            0    993.41078    104.89401   -15.010225   -275.48094   -105.07981    382.54515    40.146489    40.110055     48.13596 
  177500   -143301.08   -143381.75     80.67073    48.014489   -156428.22            0    1000.1086    104.03333    117.51272   -82.034906    42.775418    436.38292     40.14632    40.106653     48.14406 
  177600   -143301.14   -143382.57    81.426767    47.912146   -156407.98            0    989.72394    105.00832    200.99026    181.66354    97.583931    368.37982    40.126634    40.114326    48.144795 
  177700   -143301.32   -143382.13     80.81128    47.708255   -156431.17            0    999.96157    104.21458    203.27087    314.36051     102.2311    237.94434    40.110657    40.133841     48.15559 
  177800   -143301.42   -143382.95       81.525      47.5506   -156422.31            0    996.01758      105.135    194.15398     395.8915    111.82356    115.97616    40.096875    40.145842    48.151326 
  177900   -143301.43   -143383.37    81.941278    47.638513   -156405.85            0    988.88249    105.67183     99.92252    348.43589    19.999469   -26.009246    40.091829    40.163324     48.13013 
  178000   -143301.41   -143382.34     80.93308    47.854511   -156415.75            0    994.65104    104.37165    -6.660861    196.87405   -34.387608    -138.0781    40.119466    40.155783    48.114767 
  178100   -143301.34   -143382.81    81.466688    47.531359   -156403.62            0    989.40366     105.0598   -43.982347    155.03779   -80.093064    -163.7491    40.121311    40.137584    48.128257 
  178200   -143301.02   -143382.57    81.550892    47.798439   -156427.46            0    1000.2587    105.16839   -55.534091    39.818817   -32.763404   -131.83789    40.137417    40.115703    48.149909 
  178300    -143300.6   -143382.32    81.718423    47.879415   -156392.05            0    983.55463    105.38444    -17.10672    72.610948   -4.2315819    -75.94647    40.124758    40.099858    48.164347 
  178400   -143300.27   -143380.47    80.196061    48.367219   -156422.57            0    999.12507    103.42119   -52.678252    15.845052  -0.96029127   -134.04526    40.127122    40.107863    48.169198 
  178500   -143299.89   -143382.18    82.293482    47.764905   -156423.38            0      999.008    106.12603   -71.790683   -40.976962   -39.274377   -95.119296    40.122637    40.123723    48.156273 
  178600    -143299.7   -143382.47    82.769467    47.928276   -156383.78            0    980.97304    106.73987   -27.039822   -18.329263  -0.24710207   -19.158285     40.11657    40.132798    48.126698 
  178700   -143299.71   -143381.51    81.795228    47.783271    -156440.3            0    1006.6184    105.48348   -27.553136   -37.933089     13.23733   -14.730152    40.132819    40.134371    48.139425 
  178800   -143299.86   -143382.22    82.360739    47.760053   -156395.64            0    985.51978    106.21277    20.140885   -16.510331    111.06748    9.6938819    40.123959    40.112677     48.14992 
  178900   -143300.38   -143381.95    81.571783    47.809275   -156422.38            0     997.9204    105.19533    20.904598   -27.192156    70.568423    63.331983    40.124084     40.11357    48.162276 
  179000   -143301.21   -143382.65    81.437448    47.694296    -156426.8            0    999.92846    105.02209   -17.036634   -67.360303    36.044954    24.392308    40.125211    40.113431    48.164403 
  179100      -143302   -143383.29    81.286044     47.41829   -156387.15            0     981.7098    104.82684   -17.810949   -61.699488   -25.543951    79.918952    40.121015    40.115619    48.142961 
  179200   -143302.41   -143384.08    81.677533    47.353641   -156424.02            0    998.06937     105.3317   -33.332439    -104.0932     -71.0538    119.44415    40.129374    40.129137    48.138388 
  179300   -143302.56   -143383.28    80.725064     47.51269   -156411.25            0      991.898     104.1034   -35.991165   -70.435866   -110.70017    118.73718    40.126905    40.138288    48.126001 
  179400   -143302.43    -143382.5    80.067625    48.134634   -156396.85            0    986.52504    103.25556   -24.885978   -109.34793   -113.61453    193.19585    40.127728    40.136063    48.115903 
  179500   -143302.11    -143382.5    80.396142     47.87553   -156438.31            0    1005.6075    103.67922    -70.02272   -110.50345   -224.10153    166.94607    40.127211    40.142248    48.134877 
  179600   -143301.74   -143382.47    80.734145    47.460802   -156395.54            0    985.52887    104.11511   -35.376062   -9.2155159   -182.80296    129.24666    40.111982    40.119142    48.157361 
  179700    -143301.3   -143382.45    81.156719    47.467223   -156420.13            0    997.13733    104.66006   -28.301081    86.148092   -147.92655    21.348225    40.114475    40.104309    48.184822 
  179800   -143300.84   -143383.36    82.512661    47.261888   -156422.51            0    998.03206    106.40869    -22.42326    184.34977   -146.06695   -64.227136    40.114815    40.104253    48.184607 
  179900   -143300.58   -143382.09     81.50833    47.546747   -156399.41            0    987.29551     105.1135     40.69825    255.46099   -5.9891607   -85.912408      40.1327    40.105003    48.148376 
  180000   -143300.54   -143382.02    81.480112    47.801263    -156422.5            0    997.38334    105.07711    52.509752    354.65969    42.048759   -197.22852    40.136981    40.136147    48.120495 
  180100   -143300.49   -143382.36    81.869128     47.72152   -156390.71            0     982.9689    105.57879    51.367868    268.46398    166.27332   -238.61858    40.137004    40.145021    48.090707 
  180200   -143300.55   -143382.31    81.759208    47.765161   -156403.93            0    989.00068    105.43703    14.377998    215.55821    171.03588   -299.10526    40.130182    40.147213    48.106147 
  180300   -143300.72   -143381.24    80.521531    48.227662   -156442.53            0    1007.5625    103.84092   -36.338886    106.92607    194.60635   -367.23967    40.120131    40.137663    48.152806 
  180400   -143300.91   -143380.97    80.061092    48.168905   -156381.45            0    979.54305    103.24713   -17.968859     40.56757    277.73795   -330.96417    40.103555    40.101087    48.181672 
  180500   -143301.08    -143381.2    80.124057     48.05307   -156423.78            0    999.05944    103.32833    -46.39701    1.4971766    181.91925   -277.82841    40.116006    40.099139    48.193589 
  180600   -143301.27    -143382.8    81.521633    47.829766   -156419.74            0    997.15802    105.13065   -38.781263   -97.270138    168.34959   -142.66911    40.137458    40.090769    48.171955 
  180700   -143301.59   -143382.97    81.379389    47.393934    -156387.9            0    981.59676    104.94722   -13.906118   -89.891051    126.98322   -37.229072    40.138064    40.101945    48.140981 
  180800   -143301.96   -143382.91    80.944214    47.556219   -156431.54            0    1001.4908    104.38601   -12.040736   -158.55882    105.43516    59.876689    40.147168    40.126706    48.125396 
  180900   -143302.28   -143382.91    80.628446     47.68936   -156406.49            0    990.01399     103.9788    33.064719   -104.13125    67.005724     180.5566    40.121916    40.141804    48.121392 
  181000   -143302.52   -143383.11    80.587892    47.801367   -156403.21            0    988.48747     103.9265    32.293784   -155.39714    4.6785718    292.91058     40.11373    40.150361    48.117677 
  181100   -143302.71   -143383.31    80.603903    47.566223   -156427.46            0    999.53246    103.94715     34.63334   -162.45533   -40.285276    350.12729    40.121681    40.138452    48.136474 
  181200   -143302.62   -143382.93     80.31036    47.515857   -156403.17            0    988.96159    103.56859    30.246708   -102.36297   -104.99671    339.02236    40.124056    40.114309    48.147593 
  181300   -143302.26    -143382.9    80.641396    47.463302   -156412.12            0    992.43422     103.9955   -1.6944138   -125.08575   -176.69058    336.10496    40.138084    40.104739    48.152788 
  181400   -143301.65   -143381.13    79.482124    47.702788   -156417.24            0    995.68027     102.5005    12.080701   -51.686674   -141.41215    268.47863     40.14184    40.093731    48.162674 
  181500   -143300.77   -143382.55    81.780713    47.364475   -156393.31            0    984.04369    105.46477    14.283102    85.980542   -190.69505    192.59777    40.115997    40.108893    48.161571 
  181600   -143300.17   -143381.88     81.70418    47.790353   -156425.54            0    998.96409    105.36607    3.8541733    129.92263   -143.44074    71.299407    40.100775    40.135123    48.169044 
  181700   -143299.83   -143381.21    81.379379    48.057086   -156402.43            0    989.39314     104.9472   -19.141101    262.99787   -188.62277   -86.138571    40.068462     40.16131    48.162693 
  181800   -143299.63   -143382.18    82.553982    47.493315   -156400.94            0    988.62892    106.46198   -63.370424    189.06743    -138.1791   -197.64215    40.080181    40.164504    48.145681 
  181900   -143299.69      -143382    82.312613    47.639776   -156426.97            0    1001.6626    106.15071   -73.615183    190.36816   -102.95794   -266.26944    40.109726    40.151369    48.137086 
  182000   -143299.98   -143381.83    81.845364    47.925263   -156410.61            0     993.0831    105.54814   -86.646726    117.52139   -62.890274   -271.94634    40.148611    40.119022    48.125189 
  182100    -143300.5      -143383    82.502144    47.697059   -156396.62            0     985.8774    106.39513   -59.818276    76.930447    69.200619    -280.9309    40.158048    40.097436    48.129787 
  182200   -143301.37   -143383.45    82.079341    47.449022   -156430.53            0    1001.2146    105.84988   -13.646838    41.626691    115.45606   -151.62574      40.1369    40.113756     48.15195 
  182300    -143302.3   -143384.29    81.988249    47.232239   -156409.12            0    990.50902     105.7324   -1.2578664    39.276095     156.8949    -152.9782    40.105412     40.10689    48.186942 
  182400   -143302.85   -143383.72    80.877543    47.314498   -156414.81            0    993.78413    104.30003    9.3861719    28.227771    80.573971   -38.206627    40.081865    40.114774    48.206407 
  182500   -143302.93   -143382.06    79.130869    47.925749   -156425.31            0     999.0332    102.04752   -3.3835105   -17.418369    116.19339    -66.24623    40.095725    40.122378    48.188326 
  182600   -143302.72   -143383.49    80.765992    47.341671   -156405.19            0    988.96314    104.15618    28.202993     13.46654    115.43998   0.21032834    40.123391    40.121893    48.142942 
  182700   -143302.43   -143384.33    81.902962    47.113275   -156419.95            0    995.39925    105.62242    56.112124    17.508984    114.23618    81.783561    40.164038    40.127108    48.094536 
  182800   -143301.96    -143384.7    82.733114    47.317346   -156416.95            0    993.84179    106.69299    19.653619    -22.18295    57.769122    67.049785    40.176726     40.12356    48.084233 
  182900    -143301.5    -143383.4    81.899991    47.200869   -156394.26            0     984.3537    105.61859    17.937747    24.763166    4.8873835    67.631906    40.146171    40.127501    48.102441 
  183000    -143301.1   -143381.91    80.802203    47.824171   -156441.23            0    1007.0934    104.20288   -36.819566     -63.9036    -33.55306    27.027357    40.121198     40.13606    48.150734 
  183100   -143300.73   -143382.19    81.457775    47.878008   -156413.46            0    994.04992     105.0483   -45.751743    -43.03012   -71.117985    16.272236    40.078755     40.13501    48.189029 
  183200   -143300.42   -143381.85    81.426361    48.026926    -156396.6            0    986.20673    105.00779  -0.81688131       21.141   -6.1838806    24.802517    40.064117    40.132818    48.198545 
  183300   -143300.27   -143382.44    82.176027    47.635379   -156432.04            0    1002.0504    105.97456  -0.85249778   -0.5602434   0.95201836    38.936084    40.097096    40.123366    48.190946 
  183400   -143300.32   -143383.09    82.774258    47.654299   -156406.83            0    990.47881    106.74605    12.292547    44.009646   -11.162639    46.450041    40.123419     40.12315    48.143678 
  183500   -143300.54   -143383.22    82.689032    47.255471   -156402.42            0    988.28357    106.63614    7.3473151    38.136756    71.844972   -43.207016    40.159399     40.10958      48.1144 
  183600   -143301.03   -143382.16    81.132871    47.772488   -156431.74            0    1001.9739    104.62931   -24.372241    17.823081   -24.700035    -22.45539    40.172866    40.114354    48.110877 
  183700   -143302.06   -143382.92    80.857372     47.51994   -156390.62            0    982.90586    104.27402    23.653899    61.575135    40.210713    11.479522    40.155378    40.109164    48.111548 
  183800   -143303.01   -143382.27    79.265764    48.079709   -156430.72            0    1001.7259    102.22148     15.15822    52.441597    18.275812    15.752629    40.138886    40.119725    48.140569 
  183900    -143303.4   -143382.45    79.045523    47.595339   -156410.08            0     991.2636    101.93745    26.075685    95.417597  -0.84924846    25.997047    40.098658    40.135682    48.160658 
  184000   -143303.41   -143382.76    79.355296     47.79761    -156396.6            0    985.86993    102.33694  -0.91901106    2.4848423    104.37721    -66.15073    40.093747    40.125495    48.169011 
  184100   -143303.08    -143382.6     79.52487    47.656669   -156442.33            0    1007.1744    102.55562   -63.775552   -36.922533   -16.621943   -92.470958     40.09736    40.146412    48.168428 
  184200    -143302.4   -143384.34    81.933575    47.070853   -156389.47            0    982.52676     105.6619   -97.534903   -98.628826    5.8326809   -153.96041    40.109665    40.130962    48.142889 
  184300   -143301.67   -143383.22    81.553657    47.541783   -156416.61            0     996.4747    105.17195   -167.88684    -173.0101   -50.080694   -238.69325    40.126293    40.125844    48.144746 
  184400    -143301.1   -143381.26    80.161319    47.935906   -156423.56            0     1000.134    103.37639   -197.03564   -237.38219   -123.18181   -186.91251    40.138786    40.123573    48.140805 
  184500   -143300.71   -143381.06    80.351803    47.976542   -156383.91            0    982.06087    103.62204   -165.42035   -300.52353   -56.749599   -93.187211    40.125709      40.1177     48.13903 
  184600   -143300.52    -143381.7    81.178543    47.773561   -156426.21            0    1000.2363     104.6882   -108.88962   -252.64329   -82.794305    52.703193    40.122251    40.138325    48.143196 
  184700   -143300.47   -143383.03    82.559111    47.568116   -156412.24            0    993.12909    106.46859    53.618095   -157.08087    57.669626    302.53528    40.124018    40.133077    48.130558 
  184800   -143300.53   -143381.82    81.282493    47.763916    -156410.6            0    990.69565    104.82226    223.03194   -31.074289    180.95442    564.41663    40.133025    40.136002    48.113983 
  184900   -143300.67   -143383.01    82.335116    47.225943   -156433.82            0    999.74375    106.17973    403.01302    165.62043    213.77923    874.20315    40.146829    40.126522    48.114431 
  185000   -143300.87   -143382.66    81.789745    47.362851   -156417.31            0    991.90771    105.47641    487.70467    238.94153      255.105    1011.5993     40.13748    40.116241    48.125682 
  185100   -143301.08   -143382.25    81.167027    47.670651   -156432.16            0    999.52163    104.67335    392.86848    328.78989    48.454799    843.14813    40.109544    40.128986    48.155945 
  185200    -143301.6   -143382.89    81.296669    47.504362   -156426.72            0    998.14316    104.84054    198.45234    239.44481   -116.87672     516.4977    40.093653    40.132333    48.173824 
  185300   -143302.62    -143382.7    80.082497    47.808656   -156408.15            0    991.53878    103.27474   -56.934856    139.27249   -369.98338    103.61527    40.084112    40.137983    48.174558 
  185400   -143303.46   -143384.12    80.664097     47.33193   -156407.67            0     991.7543    104.02477   -261.51535    -22.51499   -483.00815     -238.446    40.101666     40.13528    48.162791 
  185500   -143303.83   -143384.13    80.299501    47.068168   -156415.22            0    995.84476    103.55459   -292.63462   -56.046918   -396.57933   -384.06913    40.121773    40.133636    48.143792 
  185600   -143303.81   -143385.26    81.451399    46.596773   -156401.45            0     987.8803    105.04008   -218.74343    12.426699   -263.50723   -359.22591    40.123963    40.137827    48.129209 
  185700   -143303.32   -143385.08    81.758674    46.906817   -156414.33            0    993.76791    105.43634   -130.42057    12.414138   -93.151972   -267.84854    40.128896    40.139433    48.124057 
  185800   -143302.53   -143383.79    81.256583    46.984563   -156427.96            0    1000.1983    104.78885   -81.783202    83.321404   -82.409906   -203.65798    40.118042    40.145931    48.136284 
  185900   -143301.91   -143382.57     80.65794    47.499144   -156401.55            0    987.89888    104.01683   -7.7770813    37.390758    80.484333   -96.999664    40.118433    40.123388    48.147618 
  186000   -143301.49   -143382.93    81.438193      47.5563   -156422.72            0    997.66863    105.02305    66.667771    147.20189    150.48788   -54.347136    40.118098    40.112268    48.167961 
  186100   -143301.34    -143382.9     81.56277    47.594326   -156419.54            0    995.42519    105.18371    120.76977     157.4932    239.44516    8.0673378    40.118859    40.102788    48.176918 
  186200   -143301.22   -143381.35    80.131458    47.837755   -156413.87            0    992.69971    103.33788    185.33516    175.83794    275.24337    149.77367    40.111262    40.109572    48.174166 
  186300   -143300.97    -143382.6    81.635724    47.294991   -156436.19            0    1002.4476    105.27779    211.23936    167.03212    299.50377    213.73745    40.109084    40.133082    48.159722 
  186400   -143300.67    -143383.7    83.030355    46.832774   -156404.61            0     987.5978    107.07631    155.55258    -9.962446    305.18381    215.14112     40.11709    40.132235    48.135241 
  186500   -143300.41   -143382.54    82.127687    47.451934   -156399.28            0    987.72522    105.91222  -0.93323924   -253.60284    137.61436    157.61572    40.120895    40.144909     48.11421 
  186600   -143300.24   -143381.82    81.572748    47.731119   -156429.93            0    1003.6475    105.19657   -249.29336   -569.15821   -136.16577    1.3771114    40.143963    40.139376    48.119534 
  186700   -143300.29   -143381.43    81.143368     47.54655   -156381.32            0    982.49237    104.64284    -460.2009   -838.54504   -432.49586   -67.165406    40.140935      40.1265    48.120198 
  186800   -143300.42   -143382.74    82.321032    47.205321   -156413.51            0    998.30616    106.16156   -559.72554   -874.01821   -639.11791   -121.97643    40.134232      40.1276    48.143926 
  186900   -143300.87   -143382.62    81.755371    47.379754   -156401.76            0    992.05297    105.43208   -511.82382   -789.44624   -588.98159   -113.56182    40.129038    40.114345    48.160316 
  187000   -143301.58   -143381.89    80.314011    48.031551    -156389.5            0    985.51133     103.5733   -338.04543    -404.4891   -502.35691   -64.257347     40.10522    40.120443    48.168917 
  187100   -143302.26   -143384.01    81.745182    47.284102    -156436.2            0    1004.8977    105.41894   -118.18863   -116.67636   -283.29148    89.954241    40.114731    40.132584    48.159368 
  187200   -143302.85   -143383.25    80.401304    47.199952   -156413.62            0     992.4665    103.68587    108.15233    226.37589   -112.94827    254.86214    40.114774    40.147039    48.125449 
  187300   -143303.05   -143382.89    79.847074    47.424768   -156410.83            0    990.20589    102.97114     250.1003    460.40381    60.572178    270.79648    40.122157    40.137711    48.121866 
  187400   -143302.85   -143384.02    81.168782    47.219965    -156428.9            0    997.84679    104.67562    242.44978    433.17166    100.66638    234.60865    40.141367    40.132322    48.115849 
  187500   -143302.44   -143382.86     80.41786    47.480105   -156393.41            0    983.22183    103.70722    135.64971    317.69679    87.661852    43.381041    40.124868    40.124354    48.128087 
  187600   -143301.63   -143382.64    81.009604    47.664131   -156433.43            0    1002.8122    104.47034    36.178299     95.50056    95.162247     -37.2618     40.12736    40.117178    48.158306 
  187700   -143300.79   -143381.68    80.895265    47.884388   -156405.08            0    989.89622    104.32289   -5.4066837     65.57638    20.508817   -58.935772    40.100189    40.119271    48.176212 
  187800    -143300.3   -143381.14    80.839584    47.700804   -156393.09            0    985.00521    104.25108   -6.3686218    36.236079    31.490333   -43.511138    40.090173    40.114591    48.186478 
  187900   -143300.09   -143382.45    82.357354     47.32181   -156441.17            0    1006.4551     106.2084   -30.706955   -25.739367    38.286753   -60.337966    40.109718    40.115919    48.190242 
  188000   -143300.12   -143382.71    82.592367    47.356987   -156386.46            0    981.47301    106.51148   -68.626444   -17.983019    -36.22822   -107.63671      40.1106    40.127202    48.146117 
  188100   -143300.26   -143382.05    81.794035    47.707557   -156414.61            0    995.42345    105.48195   -114.64678    -156.3695   -47.169416   -95.380768    40.137038    40.139827    48.115377 
  188200   -143300.48    -143382.2    81.725623    47.651126   -156422.96            0    999.49676    105.39372   -132.78212   -155.11616   -89.778772   -109.05899    40.130083    40.160335    48.103678 
  188300   -143300.72   -143381.89    81.176756    47.629095   -156393.87            0    986.03398     104.6859   -141.99227   -202.87071   -59.658748   -121.15489    40.128451    40.137374    48.117697 
  188400   -143300.99   -143382.38    81.389527     47.57078   -156421.05            0    997.64507    104.96029   -83.065222   -265.37372   -12.514918    70.400321    40.134938    40.124799    48.139321 
  188500   -143301.45   -143381.74    80.288466    47.902947   -156411.45            0    992.31597    103.54036    72.325332   -127.45471     50.19882    336.02674    40.122564    40.114661    48.155971 
  188600   -143301.92   -143383.51    81.588851    47.226769    -156420.2            0    994.40576    105.21734    215.94593   -51.476586    192.49187    550.99342    40.127785     40.10417    48.161793 
  188700   -143302.58   -143383.66    81.082622    47.262238   -156430.98            0    998.69008     104.5645    317.51469    127.93669    137.84304    731.45265    40.115251    40.125368    48.154264 
  188800   -143303.24   -143383.78    80.536136    47.147032   -156407.82            0    987.55234    103.85975    374.58222    215.00248    165.22177    787.22053    40.116558    40.128332    48.134145 
  188900   -143303.78   -143385.57    81.791841    46.483432    -156429.8            0      997.296    105.47912    331.92292    246.50838    49.591482    741.99993    40.121401    40.144147    48.121932 
  189000    -143304.2   -143384.21    80.000325    46.941217    -156422.6            0    995.47891    103.16877    174.99348    255.92329   -112.23199    424.15847    40.123107    40.135126     48.13198 
  189100   -143304.21   -143383.79    79.575528    47.327285   -156405.06            0    989.29209    102.62095   -53.106616    138.28478   -316.84557    61.769253    40.129318    40.122702    48.136059 
  189200   -143303.59    -143383.6    80.009961     47.12076   -156422.86            0    999.06815     103.1812   -243.00568    36.837302     -438.699   -282.20671     40.12745    40.121388    48.155808 
  189300   -143302.43   -143382.61    80.187505     47.50103   -156408.05            0    993.61017    103.41016    -304.0682   -14.930302   -378.01387   -477.17278    40.129575    40.102497    48.168617 
  189400    -143301.4   -143383.45    82.047157    47.087243    -156404.1            0    990.72878    105.80837   -239.06069    1.6714592   -272.41865   -403.78725    40.113128    40.122442    48.161828 
  189500   -143300.89   -143382.67    81.771156    47.604181   -156417.08            0    996.31674    105.45244   -155.14532   -13.671488   -161.50784   -245.66191     40.11333    40.131956     48.15589 
  189600   -143300.56   -143381.87    81.310543    47.951606   -156402.82            0    989.71017    104.85843   -75.769085    12.884715 -0.092964893   -197.15885    40.119082    40.125199    48.146443 
  189700   -143300.31   -143382.05    81.733128    47.788362   -156425.06            0     999.4678     105.4034   -24.498589      17.4207    22.790936   -71.984181    40.138553    40.125751    48.134024 
  189800   -143300.24   -143381.02    80.781382    47.930301   -156406.88            0    991.15029    104.17602    15.213716    -5.028786    152.97746   -57.909757     40.14549    40.105735    48.139431 
  189900   -143300.19   -143381.58    81.394495    48.053444   -156413.61            0    994.12565     104.9667    40.650393    36.451078    113.55887    15.800372    40.134594    40.115199    48.142176 
  190000   -143300.34   -143382.36    82.014744    47.527035   -156414.95            0    993.65491    105.76657    85.138423    36.813353    229.09385    33.200715    40.125872    40.109079    48.160438 
  190100   -143300.64   -143382.66    82.022344     47.32819   -156388.99            0    980.92761    105.77637    88.367556    80.905635    181.12503    45.828728    40.095555    40.134996    48.152855 
  190200   -143301.05    -143383.3    82.253375    47.324221   -156434.46            0    1002.2776    106.07431    48.681135   -7.7768957     119.4512    79.628277    40.091817    40.153516    48.160213 
  190300   -143301.63    -143383.6    81.969607    47.285866   -156412.53            0    992.65797    105.70836    6.0531453   -25.310565    88.498162   -1.5021633    40.098886    40.141719     48.15364 
  190400   -143302.27   -143384.02    81.754465    47.240173   -156395.39            0    984.84931    105.43092   -24.906894   -44.912579    17.635144   -3.6185528    40.115834    40.134724    48.131718 
  190500   -143302.76   -143384.49    81.730273    46.803959   -156439.98            0    1005.2314    105.39972   -43.591911   -107.11873    3.4771071     16.19143    40.149105    40.115655      48.1401 
  190600   -143303.15   -143382.68    79.526962    47.090761   -156402.48            0    988.36528    102.55832   -17.984916    16.808681   -30.631084    3.9998068     40.14818    40.104425    48.133589 
  190700   -143303.16   -143382.75    79.593258    47.351552   -156409.61            0    991.43631    102.64381   -24.997158   -26.497768   -58.970267    53.683866    40.145784    40.102234    48.144198 
  190800   -143302.71   -143383.08    80.375054     47.39955   -156429.96            0    1000.9028    103.65202   -50.143034   -47.252411   -76.753644     16.40814    40.131327    40.123833    48.148037 
  190900   -143301.58   -143383.18    81.597976    47.142169    -156394.9            0    985.50424    105.22911   -82.109012   -39.067188   -146.28492   -15.920228    40.111274    40.131727    48.142718 
  191000   -143300.47   -143382.17    81.703883    47.762372   -156400.69            0    988.61539    105.36569   -97.165349   -55.614103    -114.7983   -77.313629    40.123214    40.121849    48.145682 
  191100   -143299.99   -143383.07    83.082471    47.180648   -156432.41            0    1003.0212    107.14352   -74.250079    49.017813   -153.19224   -74.801631    40.127685    40.136034    48.138835 
  191200   -143299.88   -143381.49    81.606204    47.638445   -156404.34            0    989.67209    105.23972    9.3049286     216.3926   -133.31419   -11.738807    40.131527    40.121143    48.136366 
  191300   -143299.88   -143381.03    81.148782    47.967488   -156416.89            0    995.07176    104.64982    85.597226    306.71703    44.198725   -48.777547    40.130143    40.116576    48.148275 
  191400   -143300.09   -143382.35    82.252988    47.279393   -156422.02            0     996.8737    106.07381    169.09567    430.52454    103.20181    19.513884    40.118049    40.122434     48.15358 
  191500   -143300.62    -143381.3    80.675267    47.547681   -156407.94            0    990.20862    104.03918    201.52438    415.53585    240.67558   -6.1461972    40.105487    40.118864    48.165489 
  191600   -143301.12   -143382.71    81.596146    47.336073      -156430            0    1000.1807    105.22675    170.13886    377.33765    189.21133   -13.852786    40.107052    40.130278     48.16154 
  191700   -143301.62   -143382.45    80.829329    47.611628   -156418.56            0     995.0706    104.23786    116.83405     193.8331    256.17457   -58.651179    40.127383    40.116908    48.149589 
  191800   -143301.98   -143382.67    80.690411    47.432942   -156386.69            0    980.75319    104.05871   -17.769023   -52.127326    165.53446   -122.91199    40.143079    40.118306    48.116495 
  191900   -143302.21   -143383.37    81.162987    47.318161   -156430.81            0    1002.1297    104.66814   -158.99993   -268.24648    23.538135   -190.49275    40.160559    40.125662    48.113696 
  192000   -143302.49   -143383.26    80.770164    47.174241   -156407.33            0    991.50928    104.16156   -210.24099   -415.07578    27.935213   -200.44918    40.153617    40.122307    48.116608 
  192100   -143302.53   -143383.75    81.217796    46.986623   -156403.16            0    989.71154    104.73883   -204.61943   -384.27405   -70.535066   -115.40348    40.117339    40.135898    48.138411 
  192200   -143302.09   -143384.01    81.915267    47.107773   -156409.64            0    991.85024    105.63829   -143.53254   -297.51499   -67.630704   -22.497901    40.091609    40.134813    48.173805 
  192300   -143301.36   -143381.72    80.362662     47.68961   -156410.25            0    993.10142    103.63604   -90.443341   -197.02608   -33.890855    4.1862945    40.072667    40.144934    48.183547 
  192400    -143300.4   -143382.15     81.75079    47.612288   -156412.29            0     993.7839    105.42618   -20.029063    -85.12381     66.71009   0.69918509    40.078588    40.145849    48.173205 
  192500   -143299.67   -143381.89    82.219201    47.836798   -156420.56            0    997.05203    106.03024    27.764435      2.23164    19.605096    102.05269    40.113892    40.144585    48.136677 
  192600   -143299.42   -143380.82    81.406183    47.984081   -156405.52            0    990.05331    104.98177     67.72387     63.15423    98.456682     84.88364    40.155337    40.114995    48.114705 
  192700   -143299.32      -143382       82.678    47.791321   -156413.08            0    993.60498    106.62191    68.842371    85.533653    56.432813    109.99168    40.188152    40.098839    48.096811 
  192800   -143299.45   -143382.07    82.615605     47.80928   -156414.92            0    994.02135    106.54145     55.38487    126.38292    11.265283    75.342162    40.177283    40.113992    48.094657 
  192900   -143300.03   -143380.72    80.687448    48.007473   -156410.44            0    992.53781    104.05489    37.292981    58.228798    29.631883    70.977344     40.14388    40.122102    48.122918 
  193000   -143300.81   -143381.47    80.650167    47.802829   -156414.01            0    994.26485    104.00681    -13.66608     127.4138   -100.32549   -23.081121    40.090064    40.147988     48.15945 
  193100   -143301.44   -143382.84    81.396305    47.366768   -156411.26            0     992.7154    104.96903   -109.01995    -14.90932   -175.54494   -93.891884    40.067994    40.151579    48.183915 
  193200   -143301.85      -143384    82.148537    47.016932   -156393.73            0    985.68417    105.93911   -224.49836   -70.129257   -368.55438    -193.1796    40.072162    40.139916    48.182992 
  193300   -143302.08   -143383.98    81.901966    47.158727   -156417.89            0    997.62493    105.62113   -296.15473   -147.87119   -413.48483   -284.55993    40.101486    40.130825    48.173096 
  193400   -143302.13   -143382.61    80.480969    47.572777   -156411.69            0    994.82652    103.78861   -286.01719   -147.30321   -324.49712   -345.06627    40.136067    40.114476    48.149533 
  193500   -143301.94   -143382.27     80.32736    47.460161   -156399.21            0    988.08509    103.59052   -182.16951   -75.383024   -219.08592   -207.30273      40.1455    40.119749    48.122896 
  193600    -143301.6   -143381.98    80.373915    47.678388   -156425.42            0    999.88698    103.65055   -62.706086   -43.530277    50.217978   -149.16226     40.15319    40.113639    48.131096 
  193700   -143301.34   -143382.52    81.184611    47.468488   -156422.66            0    997.78441    104.69603    58.275125   -16.277395    150.91494    83.552191    40.141238    40.118837     48.13317 
  193800   -143301.16   -143383.04    81.876168     47.54572   -156414.38            0    993.08121    105.58787    104.16553     51.55159    174.95032    127.58947    40.128888    40.110089    48.154206 
  193900   -143301.01   -143381.85    80.844934    48.036792      -156410            0    991.26815    104.25798    105.52755    19.328782    241.56695    97.183777    40.119892     40.09902    48.176617 
  194000   -143300.94      -143383    82.061714    47.693489   -156413.61            0     992.9767    105.82715    65.382667    58.943917    134.61726    46.075478    40.107862    40.113022    48.176335 
  194100   -143300.94   -143383.58    82.641109    47.220034   -156417.95            0    994.64494    106.57434    39.564698   -42.051969    199.50058    6.9203737    40.118387    40.116915    48.163234 
  194200   -143300.87   -143382.17    81.297107    48.010096   -156419.22            0    996.40095    104.84111   -31.432536   -35.883432   -14.225166    1.0343276    40.123872     40.13673    48.135942 
  194300   -143300.87   -143382.64    81.765507    47.834679   -156407.03            0    991.26538    105.44516   -40.216923   -16.812473   -1.0429137   -59.171478    40.131643    40.125233       48.132 
  194400   -143300.91   -143382.74    81.836206    47.776865   -156421.25            0    998.25004    105.53633   -48.289302   -34.262989   -7.7216693   -60.722458    40.135217    40.126646    48.131941 
  194500   -143301.03   -143382.49    81.461566    47.424607   -156417.62            0    996.06135    105.05319   -36.112232    6.8012252   -62.568589   -9.9294144    40.119285    40.133662    48.142605 
  194600   -143301.11   -143381.39    80.285043    48.437871    -156404.4            0     989.8241    103.53594   -12.713071   -45.212866    43.981884    5.0182448    40.115423     40.11989    48.157557 
  194700   -143301.12   -143381.96    80.836833    48.254109    -156410.5            0    992.62116    104.24753   -12.396024   -6.2549431   -12.649151    26.050233    40.099782    40.129879    48.166821 
  194800   -143301.19   -143382.76    81.572109    47.812573   -156418.38            0    996.30054    105.19575   -12.637111  -0.63874996    31.609961   -26.710496    40.109513    40.124623    48.163533 
  194900   -143301.26   -143382.64    81.374409    47.567056   -156406.13            0    989.66599    104.94079   -3.7016091   -4.2304017    12.060918     25.52363    40.127571    40.116493    48.148758 
  195000   -143301.21   -143382.87    81.661094    47.689508   -156411.46            0    992.55419     105.3105    12.716704    48.557459   -23.153609    57.440715    40.132762    40.115995    48.142817 
  195100   -143301.19   -143381.37    80.173834    48.274773   -156417.31            0    995.78215    103.39253   -13.006018   -42.506045    36.866508     9.682635    40.140453     40.11735      48.1373 
  195200   -143301.15   -143382.86    81.708688    47.708625   -156412.61            0    993.25141    105.37188   -29.181335   -61.330421   -42.919575    59.472548    40.125798    40.143888     48.12106 
  195300   -143301.05   -143382.85    81.794203    47.962542   -156422.13            0    998.37643    105.48216   -55.850056   -35.685639   -82.991746   -4.3108133    40.117159    40.155245    48.120583 
  195400   -143300.93   -143382.78    81.850987    47.837092   -156399.55            0      987.403    105.55539   -74.814276    -46.52518    -107.6016   -27.387866    40.095349    40.159111    48.133439 
  195500   -143300.73   -143383.15    82.422028    47.525392   -156415.35            0    995.01867    106.29181   -61.464111   -47.860878    -62.80905   -29.693386    40.102022    40.148061    48.144874 
  195600   -143300.64   -143382.06    81.419852    47.465609   -156415.96            0    995.40475     104.9994    -57.41367      -25.347    3.7322364   -106.01487    40.119389    40.124688    48.154058 
  195700   -143300.61   -143381.12    80.509022    48.269324   -156400.42            0    988.49621    103.82479    -43.68792    26.055472    -47.02567   -65.680509    40.125439     40.11661    48.148261 
  195800   -143300.52   -143382.99    82.472735    47.556129   -156428.27            0    1001.2129     106.3572   -31.354568    78.588117    33.281366    -160.5363    40.143662     40.10032    48.157594 
  195900   -143300.66   -143382.84    82.178683    47.398925   -156404.56            0    989.23146    105.97799    14.131738    142.04529    61.255075   -117.30219    40.132323    40.107042    48.151479 
  196000   -143300.89   -143382.44    81.552195    47.754016   -156408.36            0    990.62686    105.17007    63.802366    237.99901    152.21874   -156.66094    40.113425    40.116728    48.164035 
  196100   -143301.24   -143382.46    81.224933     48.01493   -156440.12            0    1005.6018    104.74803     76.05853    243.95091    155.13368   -127.38007    40.106542    40.140959    48.157978 
  196200   -143301.75      -143383    81.250678    47.323592   -156393.56            0    983.16393    104.78123    89.674758    252.99991      79.0796   -19.950108    40.104054    40.145757    48.130549 
  196300   -143302.23   -143383.25    81.021348    47.149924   -156415.22            0    993.64805    104.48549    73.270747     178.4832    135.00242   -50.731761    40.122417    40.130375    48.137581 
  196400   -143302.65   -143382.68    80.027659    47.805727   -156432.03            0     1002.278    103.20402   -22.381643    51.152216   -87.980613    10.525948    40.129596    40.137353    48.133092 
  196500   -143302.93   -143383.19     80.25913    47.602193   -156384.71            0    980.62119    103.50253   -78.540941    -168.0402   -93.021038    66.874027    40.129987    40.116258    48.132755 
  196600   -143302.91   -143384.05     81.14423    47.252159   -156426.81            0    1000.6524    104.64395   -176.23652    -334.6181   -197.10587    46.405705    40.127771    40.121641    48.154087 
  196700   -143302.62   -143382.74    80.117657    47.757214   -156431.84            0    1004.1245    103.32008   -252.08307   -518.46184   -310.33727    114.50909    40.123601     40.12717    48.157488 
  196800   -143301.89   -143382.43    80.542692     47.66631   -156379.77            0    980.23022    103.86821   -204.66312   -557.73644   -254.94167    239.30574    40.113981    40.124545     48.14206 
  196900    -143300.8   -143381.28    80.477995     47.84961   -156442.85            0    1008.9484    103.78478   -157.48953   -549.56102   -217.49625    338.71884    40.125012    40.134853    48.152897 
  197000   -143299.98    -143382.2    82.220772    47.683702   -156393.14            0    984.73196    106.03227   -34.113075   -368.39246   -70.661464    382.97619    40.122947    40.118832    48.143336 
  197100   -143299.67   -143381.91    82.242953    47.903208   -156401.03            0    988.14862    106.06087    51.964364   -258.47055     5.282695    451.30307    40.125441    40.126058    48.133225 
  197200   -143299.71   -143380.84    81.136206     48.10697   -156451.87            0    1010.9017    104.63361    93.103626   -140.52676    78.958811    380.65657    40.141499    40.129149    48.140321 
  197300   -143299.91   -143381.63    81.727243     47.54375   -156370.07            0    972.39349    105.39581     158.3994    16.259365    121.17056    383.48866    40.128193    40.115137     48.12522 
  197400   -143300.22   -143382.15    81.932769    48.021106   -156432.18            0     1002.191    105.66086    126.65241    154.63102    162.69323    112.89031    40.122648    40.119661     48.15782 
  197500   -143300.72    -143382.7    81.980012    47.785186   -156444.61            0    1007.3723    105.72178    87.225189    178.42786    112.49749    14.830816    40.117333    40.115298     48.17914 
  197600   -143301.43   -143382.79    81.352543     47.16603   -156365.26            0     970.8562     104.9126    64.812152    254.81958    96.296387   -114.40855    40.095296    40.104478    48.173955 
  197700   -143302.07   -143382.83    80.755651    47.846885   -156443.73            0    1007.7061    104.14284   -39.648343    236.81296    3.0383031   -314.99189    40.100243     40.12611    48.189318 
  197800   -143302.39   -143383.99     81.59698    47.319813    -156406.5            0    990.59896    105.22782   -108.46665    230.52847   -57.539971   -455.42349    40.103189    40.127655    48.164574 
  197900   -143302.43   -143384.37    81.942437    47.208736    -156378.8            0    978.13613    105.67333   -154.65459    172.28021   -80.729227   -511.77982    40.125213    40.118085    48.134951 
  198000   -143302.25   -143382.45    80.199349    47.961868   -156450.28            0      1011.82    103.42543   -193.33584    86.750697   -47.361488   -577.23096    40.157985    40.129007    48.125369 
  198100      -143302   -143383.13     81.13836    47.405315   -156387.98            0    982.23756    104.63638   -118.06325     177.3988   -18.373111   -470.51799    40.141647     40.13461    48.101282 
  198200   -143301.77   -143382.93    81.163752    47.383056   -156408.11            0    990.71129    104.66913   -62.069291    184.17992    42.176617   -370.12051    40.129603    40.136077    48.125139 
  198300   -143301.56   -143381.73    80.170421    48.256508   -156445.56            0    1008.1005    103.38813    73.347427     181.7089    217.73633   -136.83156    40.106498    40.138651    48.165429 
  198400    -143301.4   -143383.14    81.732825    47.471302   -156384.29            0    978.22547    105.40301    196.63611    136.73757     251.5417    244.95961    40.088595    40.115223    48.177707 
  198500   -143301.28   -143383.69    82.407142     47.52118   -156429.79            0    999.52692    106.27261    207.55816    3.1180574    219.62215    442.75436    40.099533    40.104834    48.199006 
  198600    -143301.2   -143382.91    81.703972     47.75412   -156430.72            0       999.99     105.3658    192.96927   -66.048118    149.97585    538.38171    40.119071     40.09972    48.184376 
  198700   -143301.06   -143382.17    81.112193    47.714204   -156387.13            0     980.1291    104.60264    127.03132   -152.13199    68.462476    510.71788    40.135591    40.104577    48.138863 
  198800   -143300.83   -143383.23    82.400918    47.642744   -156435.82            0     1003.615    106.26458    24.637631   -176.80287   -57.950827    353.79278    40.145321    40.132774    48.120811 
  198900   -143300.56   -143382.25    81.682716    47.868331   -156412.63            0    993.70383    105.33839   -33.369142   -207.31525   -78.074113    227.71512    40.150114    40.141369    48.094176 
  199000   -143300.13   -143382.27    82.140453     47.74387   -156388.45            0    982.57046    105.92869   -42.833395   -143.63676   -59.536056    119.81783    40.135878    40.142287    48.097771 
  199100    -143299.6   -143381.38    81.783389    47.990809   -156449.44            0    1011.7492    105.46822   -86.320028    -121.3312   -165.84046    70.186131    40.141881    40.136949    48.131269 
  199200   -143298.99   -143381.21    82.212296    47.878698   -156390.35            0     984.1647    106.02134   -79.480154   -127.42706   -115.88041    47.257326    40.121938    40.109982     48.15693 
  199300   -143298.45   -143382.04    83.587785    47.751165   -156405.11            0    990.71893    107.79517   -31.908616   -8.0675269   -15.921271   -28.219204    40.106717    40.106123    48.184489 
  199400   -143298.28   -143380.72    82.441693    48.013796   -156436.42            0    1005.2716    106.31717   -28.774988    10.343217     7.204236   -58.083609    40.110947    40.115281    48.188303 
  199500   -143298.57   -143381.05    82.479488    48.217983   -156395.55            0    985.92256    106.36591    20.409462    110.62789     91.14627   -94.159629    40.104804    40.126104    48.158016 
  199600   -143299.43   -143382.02    82.583747    47.844594   -156413.43            0    993.57054    106.50036    45.768636     315.0927     200.1371   -333.36228    40.117176    40.133497    48.141743 
  199700    -143300.5   -143382.29    81.794843    47.859668    -156426.3            0     999.0723    105.48299    75.825356    535.39825    301.75941   -566.28012    40.125936    40.132993    48.138068 
  199800   -143301.13   -143381.97    80.845517    47.985185   -156415.34            0    994.22054    104.25873    86.868811    552.50169    334.22149   -581.68427    40.142818    40.117369    48.129215 
  199900   -143301.44   -143382.24    80.798252    47.705889   -156422.29            0    997.59407    104.19778    42.649469    451.31281    193.12203   -473.93606    40.134651    40.115098    48.146456 
  200000   -143301.68   -143382.22    80.539125    47.443921   -156415.01            0    994.45975    103.86361    16.983429    295.12947    96.987247   -297.47609    40.120824    40.109676    48.166575 
Loop time of 74042.4 on 8 procs for 30000 steps with 12000 atoms

Performance: 0.014 ns/day, 1713.945 hours/ns, 0.405 timesteps/s
20.1% CPU use with 8 MPI tasks x no OpenMP threads

MPI task timing breakdown:
Section |  min time  |  avg time  |  max time  |%varavg| %total
---------------------------------------------------------------
Pair    | 60721      | 63049      | 64279      | 444.8 | 85.15
Bond    | 5.299      | 5.4706     | 5.6862     |   5.8 |  0.01
Neigh   | 437.14     | 437.7      | 438.25     |   1.8 |  0.59
Comm    | 9187.9     | 10418      | 12746      |1094.3 | 14.07
Output  | 1.8688     | 1.8967     | 1.9214     |   1.0 |  0.00
Modify  | 112.16     | 112.61     | 113.34     |   3.4 |  0.15
Other   |            | 18.04      |            |       |  0.02

Nlocal:    1500 ave 1523 max 1480 min
Histogram: 1 1 0 2 1 1 0 0 1 1
Nghost:    24374 ave 24394 max 24351 min
Histogram: 1 1 0 0 1 1 2 0 1 1
Neighs:    2.18246e+06 ave 2.22188e+06 max 2.16076e+06 min
Histogram: 2 0 2 2 0 0 1 0 0 1

Total # of neighbors = 17459649
Ave neighs/atom = 1454.97
Ave special neighs/atom = 1
Neighbor list builds = 449
Dangerous builds = 0
unfix NPT
variable STEP equal step
velocity all scale 130 temp CSequ
fix NPT all npt temp 130 130 0.100000 tri 1. 1. 0.100000
fix_modify NPT temp CSequ
run 10000
Memory usage per processor = 21.0155 Mbytes
Step TotEng PotEng KinEng Fnorm E_coul E_long E_bond Temp Press Pxx Pyy Pzz Lx Ly Lz 
  200000   -143281.42   -143382.22    100.80373    47.443921   -156415.01            0    994.45975    129.99694    296.23301     574.1538    383.30679   -14.309786    40.120824    40.109676    48.166575 
  200100    -143280.3   -143373.17    92.871015    50.230126   -156387.75            0    989.06927    119.76687   -293.09231   -208.04573   -258.33304   -362.39252    40.113042    40.108927    48.185929 
  200200   -143278.19   -143369.52    91.330162    51.211018   -156406.97            0    995.55458    117.77978    244.64445    38.565169    121.16575    623.81905    40.106126    40.119554    48.178561 
  200300   -143276.19   -143370.72    94.533078    50.936636   -156405.52            0    999.82756    121.91027   -289.70598   -261.12366   -253.72196   -304.78413    40.098802    40.125948    48.190113 
  200400   -143273.97    -143366.4    92.428382    52.118551   -156383.67            0    986.04827    119.19605    302.97154    518.05519    475.18917   -34.155712    40.099424    40.124694    48.168926 
  200500   -143271.53   -143366.94    95.414455    51.455876   -156407.15            0    1001.6392     123.0469   -305.17765   -273.25665   -275.29286   -319.39406    40.130094    40.133119      48.1521 
  200600   -143269.31   -143367.19    97.881955    51.845366   -156406.59            0    997.12809      126.229    289.94322    51.954227   -94.936691    966.25433    40.136355    40.132799    48.127677 
  200700   -143267.16   -143365.05    97.892699    52.016152   -156380.23            0    990.10264    126.24285   -287.52608    -309.0934   -363.23615     -133.978    40.138883    40.128242    48.134951 
  200800   -143265.14   -143364.55     99.41627    52.435348   -156409.02            0    1001.6856    128.20766    76.721415    276.13695    557.55064   -549.22628     40.15298    40.107381    48.147474 
  200900   -143263.29    -143362.3    99.011639    52.697448   -156391.41            0    994.59847    127.68584    14.118432    77.527113    145.85657   -128.16804    40.157061    40.109114    48.136974 
  201000   -143261.76   -143361.49    99.728832    53.443944   -156372.41            0     986.9696    128.61074   -53.152676   -76.565506   -355.55194    324.89097    40.153049    40.119904    48.120059 
  201100   -143260.56   -143360.71    100.15584    53.714504    -156410.7            0    1004.8414    129.16141    40.530742   -27.093723   -14.734203    212.41065    40.154461    40.118272    48.137734 
  201200    -143259.6   -143361.54    101.93918    53.312723   -156392.96            0    996.53739    131.46122   -78.915692    9.5431064     86.68612    -279.7904     40.13564    40.121573    48.153377 
  201300   -143259.13   -143360.48    101.34775    53.531887   -156383.53            0    991.59635    130.69851    77.332231    121.71207    123.50186    41.934635    40.120465    40.115734    48.168293 
  201400   -143258.94   -143361.19    102.25238    53.382898   -156396.89            0    999.34964    131.86511   -114.44532   -16.459577   -314.02785    41.855875    40.111064    40.121922    48.183173 
  201500   -143259.14   -143361.16    102.02492     53.76089   -156392.91            0    995.61483    131.57178    83.403789    17.368567   -8.9742592     296.6783     40.13009    40.100102    48.180468 
  201600   -143259.83   -143361.31    101.48121     53.58189   -156393.65            0    997.84142    130.87061   -111.86897   -113.48538    69.672512   -234.60954    40.126643    40.095024    48.194848 
  201700   -143260.77   -143362.22    101.44777    52.986879   -156407.47            0     1001.788    130.82749      51.9806    314.57101    235.76901   -340.35529    40.134602    40.101467    48.182321 
  201800   -143261.79   -143361.98    100.18883    53.439892    -156371.5            0    986.30402    129.20395   -102.16548   -195.90619   -451.45231    394.00475    40.147334    40.122442    48.125636 
  201900   -143262.68   -143362.64    99.958766    53.431436   -156419.21            0    1006.3963    128.90726    91.650512   -169.86153   -311.91993    809.63165    40.154035    40.163799    48.088533 
  202000   -143263.44    -143364.4     100.9534    52.278119   -156381.07            0    990.53649    130.18994   -184.06956   -22.913382    326.93017   -800.47262    40.125162    40.162845    48.108531 
  202100   -143263.88   -143363.26    99.375501    52.567132   -156382.34            0    989.19458    128.15508    129.61198    529.75601    622.57304   -710.73293    40.097553    40.180784    48.112103 
  202200   -143263.94   -143363.62    99.678095    52.845496   -156423.03            0    1009.7733    128.54531   -118.41212   -144.77462   -477.85766    317.87403    40.112527    40.180602    48.124444 
  202300    -143263.7   -143363.62    99.922964    52.953036   -156391.78            0    994.13464    128.86109    34.222208   -128.27779   -191.15406    474.75452    40.112568     40.12238    48.172767 
  202400   -143263.22   -143362.89    99.670617    53.118153   -156395.02            0    996.32671    128.53566   -22.585074    97.654638    116.15708   -231.32054    40.121053    40.079231    48.218929 
  202500   -143262.41   -143363.47    101.06161    52.878049   -156407.11            0     1001.782    130.32949   -24.245135    62.535308    173.51141   -259.02275    40.144587    40.071225    48.206592 
  202600   -143261.61   -143361.97    100.35202    53.130042   -156382.53            0    991.05221    129.41441   -30.823941   -90.630028   -48.578235    99.522247    40.144499    40.099776    48.160149 
  202700    -143260.9   -143362.72    101.81938    52.720207   -156402.41            0    999.79346    131.30672   -11.375455   -56.062719   -248.90513    321.66942    40.147349    40.133257    48.126856 
  202800   -143260.26   -143362.75     102.4905    52.876631    -156390.6            0    994.49931     132.1722    1.0424647    66.926128   -20.481802    7.6626265    40.124827    40.158738     48.11561 
  202900   -143259.98   -143361.87    101.89003    53.402082   -156379.69            0    989.75154    131.39783   -4.8869256    168.29918    286.08473   -413.88638    40.099777    40.174708    48.121757 
  203000      -143260   -143362.88     102.8758    52.819542   -156412.37            0    1004.6044    132.66909   -48.128371   -62.195573   -13.161096    -16.18496    40.087548    40.179644    48.151393 
  203100   -143260.32   -143361.95    101.63364    53.164644   -156392.41            0    995.96371    131.06718   -13.574027   -115.83448   -445.89775     573.1055    40.090409    40.154075    48.164491 
  203200   -143260.88   -143360.42    99.542781    53.505933   -156397.98            0    998.46078    128.37081   -2.1703506    -110.2141     6.228876    151.49942    40.131797    40.101668    48.182738 
  203300    -143261.5   -143363.18    101.67933    52.765967   -156392.02            0    995.77267    131.12611   -103.45475     187.1105    553.54165   -997.15255    40.157463    40.074659    48.181247 
  203400   -143262.24   -143363.54    101.29742    52.753702   -156400.03            0    997.45602    130.63359    124.91935    286.15862    230.91598   -90.983716    40.182495    40.088734    48.131835 
  203500   -143262.93   -143363.63     100.7012    52.490418   -156384.87            0    992.44192    129.86471   -173.17505   -352.91609   -828.59897     715.3276    40.163045    40.128753    48.107519 
  203600   -143263.32   -143364.47    101.14967    52.822771   -156407.59            0    1000.8669    130.44306    102.93791   -11.336075    5.0446894    367.34824    40.124072     40.15398    48.126224 
  203700   -143263.59   -143362.63    99.037838     53.27688   -156393.77            0    996.67304    127.71963   -109.47631   -102.90021    274.01895   -446.84076    40.102592    40.146692    48.161086 
  203800   -143263.57   -143362.91    99.337871    53.148757   -156378.31            0     988.0019    128.10655    76.186946    194.92519    79.527225    10.976192    40.090064    40.142027    48.167825 
  203900   -143263.12   -143364.19    101.06554    52.294129   -156406.79            0    1002.6886    130.33456   -96.288128   -148.72957   -253.64213    169.61145    40.135965    40.111751    48.166112 
  204000   -143262.35   -143361.97    99.621179    52.894003    -156403.9            0    1000.5779    128.47191    16.410035    65.909534    13.458781    21.794607    40.163948    40.096036    48.151067 
  204100      -143261    -143362.5    101.50551     52.67826   -156355.53            0    978.94963    130.90196   -69.412411   -27.844307    140.48869   -269.08711    40.187549    40.077052    48.121036 
  204200   -143259.93   -143360.51    100.58191    53.309733   -156405.13            0    1001.1856    129.71087    32.852959    8.9077094    194.95994   -49.989843    40.199822    40.088368    48.121403 
  204300    -143259.5   -143360.55    101.04876    53.703356   -156401.71            0    1000.8616    130.31292   -85.998173   -4.3909201   -387.37391    191.68148    40.166365    40.135473    48.105551 
  204400    -143259.5   -143362.09    102.59031    53.127625   -156384.29            0    992.44281    132.30091  -0.41871543   -4.6335634   -173.72006    233.14628    40.125101    40.160794    48.109827 
  204500   -143259.89    -143362.4    102.51251     53.10421   -156412.86            0    1004.9787    132.20059    8.1174911    89.057186    422.57443   -433.12791    40.087662    40.175405    48.153093 
  204600   -143260.55   -143363.51    102.96391    52.256567   -156378.99            0    989.42818    132.78271   -98.216752   -183.72505    324.76907   -383.57659    40.091067    40.152431    48.161785 
  204700   -143261.31   -143362.46    101.15935    53.127828   -156417.26            0     1005.611    130.45554    182.21767    196.82309   -419.64053    824.48658    40.109611    40.144776    48.160696 
  204800    -143261.9   -143363.66    101.76332    52.686152    -156381.1            0    991.11612    131.23442   -250.87458   -71.534211   -804.74879    178.16531    40.139348     40.10965    48.161106 
  204900   -143262.33   -143363.14    100.80299    52.861671   -156387.14            0     990.7235    129.99598    232.30016    184.46909    868.72165   -302.92209    40.172333    40.066241    48.160284 
  205000   -143262.58   -143362.66    100.07681    52.959818   -156414.59            0    1007.2276    129.05949   -239.99103   -297.13314    358.00548   -724.55518    40.188695     40.08307    48.150575 
  205100   -143262.52   -143363.01    100.48616     53.13056   -156387.76            0    991.38957    129.58739     190.2891    128.11009   -165.46267    660.89458    40.178826    40.100504     48.11464 
  205200   -143262.36    -143363.2    100.84915    52.910594   -156395.96            0    997.61363     130.0555   -166.97412   -66.661093   -642.84565    263.76246    40.139668     40.14134    48.127523 
  205300   -143262.21   -143363.57    101.35803    52.980364   -156413.04            0    1003.6877    130.71176    93.864278    261.48263    378.69904   -299.86369    40.101408    40.158259    48.154179 
  205400      -143262   -143362.79     100.7853    52.921214   -156379.84            0    990.43552    129.97316    -98.92333   -232.81965    421.93626   -430.81726    40.089983    40.155802    48.157233 
  205500   -143261.68   -143362.94    101.26407    52.746225   -156410.01            0    1002.4361    130.59058    40.945683    2.7966408   -197.89998    368.87775    40.094684    40.177007    48.141775 
  205600    -143261.1   -143362.63    101.53839    52.657832   -156383.14            0    991.26106    130.94435   -63.773919    19.733407   -446.45239    288.95807    40.114151    40.141742    48.148009 
  205700   -143259.78   -143362.21    102.42964     53.26889    -156391.5            0    995.45047    132.09371   -22.236547    25.861704    228.44419   -265.12121    40.136607    40.114915     48.15548 
  205800   -143258.41   -143361.53    103.11639    52.936208   -156414.21            0    1005.4772    132.97935   -19.429271   -82.564416    196.28005   -119.77786    40.169306    40.097813    48.153824 
  205900   -143257.77   -143359.76    101.98944    53.175918   -156348.09            0    976.48264    131.52603   -17.373676   -41.261015   -131.84568    173.06843     40.15062    40.090229    48.145701 
  206000   -143257.79   -143359.16    101.37517    53.980645   -156398.82            0    999.65925    130.73386    17.722268     137.4206   -65.873979    35.117726    40.154023     40.10801      48.1496 
  206100   -143258.41    -143360.1    101.69096    53.521575   -156418.17            0    1009.8622    131.14111   -55.844612   -61.877427    40.307028   -89.618615    40.161985    40.112161     48.14282 
  206200   -143259.43   -143361.56    102.13576    52.843024   -156365.96            0    983.31704    131.71472    17.221708   -58.911423    136.49013    27.460718    40.131106    40.130403    48.130643 
  206300   -143260.43    -143361.9    101.47002    53.119993   -156400.83            0    999.32821    130.85618   -29.170969    -1.532616   -62.751886    30.991057    40.134159    40.128052    48.151118 
  206400   -143261.08   -143362.56    101.47829     53.06696   -156399.29            0    998.65748    130.86684   -2.4199071    75.957944   -69.075817    40.415918    40.128059    40.116232    48.167972 
  206500   -143261.51   -143363.02    101.50583    52.884634   -156381.22            0    989.67791    130.90236   -44.604579    4.0328661    30.223884   -113.52633    40.142221    40.094031    48.171996 
  206600    -143261.9   -143362.64    100.74544    52.896219   -156407.39            0    1002.1084    129.92176    15.761832    31.579823    144.04612    -74.40102     40.13377    40.092156      48.1931 
  206700   -143262.26   -143362.77    100.51665    52.842116   -156379.37            0    989.49224    129.62672    -21.75299   -161.05143   -141.67484    288.98849    40.124915    40.113167    48.163532 
  206800   -143262.43    -143362.5    100.06622    52.910289   -156392.09            0    994.39063    129.04584   -5.7285383    23.859792   -204.72928    216.01753    40.132877     40.12624    48.148605 
  206900   -143262.48   -143362.88    100.39885    53.006534   -156392.63            0    996.16567    129.47479   -67.342916    367.13295     51.13964   -566.65255    40.130225      40.1283    48.146384 
  207000   -143262.52   -143362.71    100.18808    52.710057   -156381.56            0    989.26318    129.20299    42.104023    75.133152    452.61121   -348.76609     40.16147    40.115997    48.118882 
  207100   -143262.29   -143362.72     100.4269    53.025574   -156417.66            0    1007.6046    129.51097   -88.208802   -672.36633   -206.77552     667.6696    40.188115    40.121015    48.102385 
  207200   -143261.78   -143362.35    100.56761    52.849985   -156397.65            0    997.11381    129.69243    43.624714   -44.128871   -342.78556    575.32823     40.17504    40.129163    48.095182 
  207300   -143260.91   -143362.52    101.61532    53.307151   -156373.24            0    986.59579    131.04357   -43.368552    512.25661    111.58017   -697.41868    40.155031    40.109729    48.131111 
  207400   -143259.98   -143361.29    101.30432    53.122555   -156406.38            0     1002.755     130.6425   -7.1791518     143.9493    372.16012    -480.3535    40.153409    40.109714    48.149907 
  207500   -143259.29   -143361.81    102.52782    52.981556   -156402.61            0    1000.3389    132.22032   -13.976588   -437.73981   -19.456372    469.31493    40.148993    40.118793    48.144504 
  207600   -143258.95   -143361.09    102.14673     53.44126   -156365.49            0    983.60292    131.72887   -2.5547106   -60.623814   -353.15449    456.81256    40.114499    40.128503    48.152385 
  207700   -143259.19   -143360.58    101.39719    53.616428   -156407.34            0    1003.5044    130.76226   -15.151689    317.52817    8.5221567   -318.16899    40.125217    40.141382    48.147293 
  207800   -143259.93   -143360.92    100.99628    53.261261   -156396.84            0    998.26062    130.24525   -25.179085    30.392003     273.6962   -323.14844    40.129838    40.142921    48.134886 
  207900   -143260.93   -143362.14    101.20586    53.318916   -156371.86            0    986.20283    130.51553   -9.9628417   -122.45599   -35.105546    186.33124    40.128234    40.158762    48.101524 
  208000   -143261.92   -143363.28    101.35585    52.787635    -156397.3            0    996.62101    130.70895    1.0255134   -87.958482   -99.042811    248.41567    40.146773    40.148803    48.106228 
  208100   -143262.45   -143363.41    100.96175    52.565158   -156373.03            0    986.16776    130.20071   -52.092987    135.32451   -113.61263   -125.54508     40.13845    40.126129    48.130308 
  208200   -143262.53   -143364.08    101.54723    52.821265   -156425.61            0     1010.353    130.95575   -7.3912063    77.926977    113.32072   -163.34148    40.148422    40.101436    48.173814 
  208300   -143262.58   -143362.83    100.25194    52.806837   -156396.04            0    996.47603    129.28534   -73.820649   -137.43353   -54.795179     20.40932    40.127513    40.085733    48.208171 
  208400    -143262.5   -143362.53    100.02778    52.898489   -156366.94            0     983.6031    128.99626    19.287579   -68.850073    21.441274    156.18675    40.117791    40.088353    48.193855 
  208500   -143262.21   -143363.15    100.93193    52.428377   -156438.54            0    1016.8036    130.16226   -37.646167    64.159951   -79.318652   -42.452424    40.117852    40.129297    48.186447 
  208600    -143261.9   -143361.61    99.715487    53.014554   -156382.44            0    990.76283    128.59353   -31.706743    124.88634   -19.071794   -147.63573    40.106883    40.148196    48.148073 
  208700   -143261.48    -143361.7    100.21841    52.807411   -156359.85            0    979.75972     129.2421    32.197647   -26.326271    75.284683    100.36798    40.134358    40.141126    48.110548 
  208800   -143260.88   -143360.99    100.11175      53.3849   -156438.84            0    1018.2028    129.10455   -65.172964   -27.662782   -98.777655   -15.217175     40.15636    40.142192    48.126451 
  208900   -143260.23   -143360.94    100.71212    53.512446   -156374.08            0    987.55296    129.87879   -16.274023   -25.422143   -13.701279    43.356848    40.160118    40.119403    48.114895 
  209000   -143259.47   -143361.41    101.93338    53.135663   -156392.89            0    996.04937    131.45373   -6.2920628   -15.382536    88.037482   -35.811767    40.147027    40.100605    48.162032 
  209100   -143258.86   -143362.44    103.57585    52.978196   -156413.08            0    1005.2692    133.57187   -31.940482   -9.3153887   -17.135853   -12.534885    40.133456    40.102161    48.188284 
  209200    -143258.6   -143360.99    102.39566    53.203397   -156380.43            0    990.40302    132.04989    46.556525     71.51858    110.49444    11.849414    40.139832    40.095384     48.16891 
  209300   -143258.68   -143360.47    101.78894     53.68572   -156399.98            0    1000.1307    131.26746   -112.86234   -8.0370035   -145.85658   -131.09113    40.136788    40.125944    48.153082 
  209400   -143259.41   -143363.07    103.65647    52.822813   -156394.19            0    995.11953    133.67584    93.040872    151.28594    172.19575    10.044421    40.140299    40.133573    48.128119 
  209500   -143260.82   -143362.79    101.97301    52.857764   -156384.94            0    993.38871    131.50485   -147.31031   -159.12727   -61.127656   -166.23714    40.111964    40.134545     48.16052 
  209600   -143261.88   -143362.36    100.48125     53.14994   -156437.85            0    1015.1245    129.58106    94.156476   -75.298776    27.251851    385.23911    40.118476    40.144769    48.165538 
  209700   -143262.51   -143363.56    101.04769    52.810711   -156362.89            0    982.10419    130.31155   -118.25435    56.952935   -117.71004   -240.71178     40.11227    40.128259     48.15444 
  209800   -143262.97   -143363.39     100.4132    52.884032   -156396.45            0    995.73224     129.4933    36.613482    282.08139    102.23125   -219.12407    40.124661    40.141414    48.140108 
  209900   -143263.08   -143364.46    101.37969    52.287128   -156417.15            0    1006.2428     130.7397   -40.081899   -242.88079    80.536425    97.491575    40.169822    40.125513    48.115915 
  210000   -143263.02   -143363.44    100.41875     52.70061   -156370.76            0    986.11951    129.50046   -95.162091   -365.24133   -146.79057    278.54998    40.161735    40.105792    48.123422 
Loop time of 24578.5 on 8 procs for 10000 steps with 12000 atoms

Performance: 0.014 ns/day, 1706.842 hours/ns, 0.407 timesteps/s
20.2% CPU use with 8 MPI tasks x no OpenMP threads

MPI task timing breakdown:
Section |  min time  |  avg time  |  max time  |%varavg| %total
---------------------------------------------------------------
Pair    | 20262      | 20923      | 21527      | 277.7 | 85.13
Bond    | 1.722      | 1.8678     | 1.9656     |   6.8 |  0.01
Neigh   | 171.57     | 172.03     | 172.38     |   1.7 |  0.70
Comm    | 2844.6     | 3449.2     | 4110       | 683.9 | 14.03
Output  | 0.61001    | 0.61888    | 0.63632    |   1.1 |  0.00
Modify  | 25.839     | 26.31      | 26.533     |   5.1 |  0.11
Other   |            | 5.623      |            |       |  0.02

Nlocal:    1500 ave 1533 max 1454 min
Histogram: 1 0 0 1 0 1 3 1 0 1
Nghost:    24374 ave 24420 max 24341 min
Histogram: 1 0 1 3 1 0 1 0 0 1
Neighs:    2.18228e+06 ave 2.23655e+06 max 2.11406e+06 min
Histogram: 1 0 0 1 1 1 2 0 1 1

Total # of neighbors = 17458255
Ave neighs/atom = 1454.85
Ave special neighs/atom = 1
Neighbor list builds = 177
Dangerous builds = 0
unfix NPT
fix NPT all npt temp 130 130 0.100000 tri 1. 1. 0.100000
fix_modify NPT temp CSequ
run 30000
Memory usage per processor = 21.0155 Mbytes
Step TotEng PotEng KinEng Fnorm E_coul E_long E_bond Temp Press Pxx Pyy Pzz Lx Ly Lz 
  210000   -143263.01   -143363.44    100.42062     52.70061   -156370.76            0    986.11951    129.50287   -95.136338   -365.01172   -145.95738    279.22346    40.161735    40.105792    48.123422 
  210100   -143263.02   -143362.71    99.697853    53.000394   -156420.43            0    1007.4955    128.57079    37.959738   -23.426894    269.46424   -80.790214    40.166158    40.102136    48.150521 
  210200   -143262.74   -143363.27    100.53367    52.730421   -156384.39            0    992.06711    129.64867   -94.651755    209.23949    88.998452   -529.37402    40.141997    40.098936    48.165198 
  210300   -143262.16   -143362.05    99.893241    53.072402   -156366.68            0     982.1891    128.82276    116.85726    224.65494   -114.41944    294.47203    40.110653    40.130573    48.151535 
  210400    -143261.2   -143361.56    100.35973    53.215804   -156423.03            0    1011.1038    129.42434   -197.72442   -605.04692   -435.05842    499.35607    40.124925    40.149593    48.151837 
  210500   -143260.04   -143361.94    101.90103    52.905821   -156376.93            0    987.46107    131.41202    195.51731    3.0532374     616.7173     21.96729    40.106443    40.134171    48.154116 
  210600   -143259.11   -143360.48    101.36645    53.453616   -156395.73            0    999.39981    130.72262   -267.13313    344.69057    531.74623   -1623.8965    40.118711    40.132554    48.169128 
  210700   -143258.84   -143361.79    102.95272    53.139918   -156396.99            0    996.81009    132.76827    140.81677    666.58268   -421.82082    229.99858     40.10623    40.161923    48.135257 
  210800    -143259.2   -143360.97    101.76774    53.356303   -156373.93            0    988.06565    131.24012     -93.6059   -671.37613    -708.0059    1154.3331    40.140141    40.172433    48.078172 
  210900   -143259.65   -143360.16    100.51579    53.426258   -156425.72            0    1011.4315     129.6256   -4.0376286   -312.82197    370.46192   -14.781997    40.155957    40.134164    48.130272 
  211000   -143260.08   -143362.52    102.44433    52.554501   -156370.63            0    985.40832    132.11266    13.355012    361.08277    456.01661   -724.91795    40.136943    40.100016    48.160125 
  211100   -143260.78   -143362.05     101.2702    52.829345   -156377.81            0    989.05099    130.59849   -62.286197    224.54537   -200.14852   -156.28038    40.154906    40.072675    48.180027 
  211200   -143261.19   -143362.31    101.12655    52.848169   -156424.98            0    1010.8621    130.41324    32.626617   -125.62401   -375.12738    649.67872    40.139423    40.083875    48.204319 
  211300   -143261.64   -143362.59    100.95601    52.933356   -156366.82            0    984.41067    130.19331   -61.959414   -405.36688    239.09769    36.325193    40.133278    40.094185    48.170745 
  211400   -143262.03   -143363.22    101.19582    52.521513   -156394.24            0    994.80446    130.50257    43.086491    317.54996    330.87955   -462.40148    40.129839     40.12513    48.152533 
  211500   -143262.25   -143362.42    100.17641    52.857295   -156408.49            0     1003.329    129.18794   -75.264262    280.85633   -171.44513   -282.73182    40.147269    40.163168    48.095979 
  211600   -143262.32   -143363.39    101.07448    52.497036   -156400.29            0    997.91465    130.34609    21.827043   -42.723358    -291.0724    452.34292    40.165819    40.164778    48.065998 
  211700   -143262.45   -143363.12    100.66948    53.068977   -156386.05            0    992.38963    129.82381   -58.205762   -435.49596    139.55751    172.59945    40.164095    40.145859    48.083048 
  211800   -143262.54   -143362.31    99.765883    53.107643    -156395.1            0    996.42925    128.65852    -15.11156     42.89529    212.09974   -247.10069    40.167527    40.120127    48.114293 
  211900   -143262.26   -143363.25    100.98741      53.1408   -156390.73            0    994.50499    130.23381   -5.0940234    431.47941   -104.12013   -286.92363    40.139235     40.10365    48.163322 
  212000   -143261.72   -143361.57       99.847    52.896138   -156398.47            0    998.05753    128.76313    8.4202398   -50.726571   -165.60976     298.3194    40.129593    40.111935    48.172323 
  212100   -143260.81   -143361.69    100.88089    53.106966   -156396.36            0    997.69651    130.09644   -31.513297   -296.33921    38.178672    217.58014    40.131806    40.099109    48.183713 
  212200   -143259.91   -143361.72    101.80884    53.373552   -156373.54            0    987.06308    131.29313   -39.844343   -40.693886    248.05693   -273.80496    40.102227    40.117102    48.187168 
  212300   -143259.49   -143360.83    101.34535    53.490364   -156407.15            0    1002.9866    130.69541    13.036523    256.72438   -40.229333   -125.19978    40.113902    40.149445    48.150389 
  212400   -143259.26   -143362.65    103.39033    52.896286    -156394.6            0    996.62788    133.33263   -21.196663     86.30875   -165.17023    69.221097    40.110239      40.1601    48.136644 
  212500   -143259.47   -143361.17    101.69122    53.374297   -156382.75            0    991.23555    131.14144    8.3370829   -169.96001    32.873966       216.17    40.125062    40.146268    48.127843 
  212600   -143260.14   -143361.33    101.19083    53.219333   -156381.47            0    990.92756    130.49614   -10.627222    -148.4285    107.44513    63.417036    40.126444    40.118874    48.158189 
  212700   -143261.07   -143363.23     102.1612    53.034334   -156414.87            0    1006.0434    131.74753   -33.125933    234.21145    58.531117   -336.08589    40.118112    40.111222    48.193877 
  212800   -143262.14   -143362.68    100.53976    52.633243   -156385.82            0    991.77036    129.65651   -15.250261     385.4503   -187.08437   -189.27487    40.122218    40.098952    48.189316 
  212900   -143262.74   -143362.75    100.01039    52.976865   -156384.94            0    991.58002    128.97384   -22.495288   -609.93266   -112.97058     707.3798    40.147006    40.107953    48.147464 
  213000   -143262.93   -143362.59    99.658773    53.096559   -156399.95            0    998.70601    128.52039    25.226595   -588.29494    308.00901    411.14023    40.165138    40.118571    48.118731 
  213100   -143262.91   -143363.14    100.22721    52.658857   -156383.33            0    991.36101    129.25344   -51.020071    697.51089    76.700023   -872.35684    40.119518    40.131897    48.150006 
  213200   -143262.71   -143362.57    99.861207    52.726964    -156398.8            0    997.29238    128.78145    19.878433    754.92703   -176.47383   -467.48382    40.112319    40.148922    48.148139 
  213300   -143262.37   -143362.79    100.42088     53.05325   -156392.71            0    996.05166     129.5032   -69.968664   -570.95675   -261.21806    674.38279    40.126301    40.148213    48.128509 
  213400   -143262.01   -143363.22     101.2101    52.846129   -156393.69            0    994.98079    130.52098   -9.7718347   -512.18471    117.37057    418.74699    40.106991    40.139405    48.163634 
  213500   -143261.68   -143362.54    100.85555    53.139547   -156383.58            0    991.35019    130.06376   -25.371446    276.64314    185.26087   -482.44033    40.116198    40.115105    48.176118 
  213600   -143261.12   -143362.85    101.72939    52.951924    -156411.8            0      1005.01    131.19067   -32.154326    316.55674   -91.914718   -268.37654    40.113973    40.115522    48.191625 
  213700   -143260.32   -143362.52    102.20493    52.610311    -156380.3            0    989.39449    131.80392   -6.4471682   -185.52232   -95.229597    312.59202    40.130786    40.104683    48.171118 
  213800   -143259.17    -143360.8    101.63583    53.413109   -156395.05            0    997.18262    131.07002   -21.264358   -242.87594    40.768786    190.29582    40.146882    40.099403    48.166076 
  213900   -143257.94   -143359.98    102.04179     53.67925   -156388.28            0    994.04603    131.59354   -11.198877    172.90872    19.534024   -173.27487    40.138868    40.121234    48.148175 
  214000   -143257.39   -143360.08    102.69018    53.693166   -156383.74            0    992.72561     132.4297    -13.44091    84.106085    40.779808   -108.02758    40.151244    40.139018    48.106393 
  214100   -143257.57   -143361.65    104.07672    52.982202   -156394.69            0    997.42167    134.21779   -36.335729   -50.710193   -93.769108    92.978041    40.141017    40.163179    48.097273 
  214200   -143258.31    -143359.9    101.59507     53.43056   -156388.23            0    994.21832    131.01745   -26.774964    -10.22756   -72.676627    57.791105    40.140429    40.155494    48.105446 
  214300    -143259.1   -143360.71    101.60756    53.173716   -156384.17            0    992.45298    131.03355     9.891771    55.791802    50.181135   -24.552643    40.130753     40.13343    48.136391 
  214400   -143259.75   -143362.57    102.82287    53.055506   -156401.47            0    998.94326    132.60083    5.7189095    117.69639    54.812522    -100.8005    40.140543    40.122829    48.149241 
  214500   -143260.26   -143361.87    101.60862    53.186041   -156370.45            0    985.18589    131.03492  -0.88302777   -72.962492    100.04918    25.669684    40.153503    40.074074     48.17381 
  214600   -143260.75   -143360.52    99.765214    53.299676   -156397.84            0    998.62096    128.65766   -8.2588697   -118.64853    48.117551    98.501699    40.150285    40.059641    48.209473 
  214700   -143261.26   -143362.65    101.39236    52.789953   -156398.76            0    998.70526    130.75603   -19.565541    171.73084    -80.17874   -99.216594    40.151047     40.06355    48.203079 
  214800   -143261.84   -143363.22    101.37608    52.692404   -156380.53            0    990.00179    130.73504   -34.397612    219.59529   -102.06094   -168.11535    40.128834    40.095198    48.181576 
  214900   -143262.38   -143362.26    99.871339    53.116853   -156407.32            0    1001.2309    128.79452    62.784765   -192.54768    257.45588    181.97795     40.13398    40.140275    48.136243 
  215000   -143262.78   -143364.12    101.33898    52.416772   -156385.11            0    991.98139    130.68719   -114.93641   -317.42041   -64.182418    94.596537    40.120114    40.161211    48.118433 
  215100   -143263.04   -143364.58    101.53915    52.220325   -156387.47            0    991.09709    130.94534    150.71299    439.29868   -33.433282    99.537367    40.106714    40.158318    48.129848 
  215200   -143263.16   -143362.99    99.830078    52.861734    -156396.3            0    998.34845    128.74131   -217.35112    173.53093   -368.19742   -404.77523    40.121397    40.133577    48.159858 
  215300   -143263.01   -143362.39    99.384101    53.093531    -156407.7            0    1001.2947    128.16617    188.63259    10.606228    450.75137    156.24947    40.128428      40.1067    48.176057 
  215400   -143262.52   -143362.65    100.12351    53.118842   -156371.56            0    986.90931    129.11972   -220.77822   -766.92903    48.561722    106.98764    40.152894     40.08689    48.165283 
  215500   -143261.56   -143362.33    100.77258    53.107563   -156399.39            0    996.83951    129.95676    184.92193    493.65773   -270.13032    381.99913    40.134219    40.093805    48.182662 
  215600   -143260.36   -143361.51    101.14061    53.014488   -156405.67            0    1003.3455    130.43137   -196.65722     465.8762   -370.68249    -633.9324    40.122838    40.107618    48.194439 
  215700   -143259.61   -143362.38    102.76355    53.103374   -156379.17            0    988.02405    132.52433    146.55653   -102.45075    559.64628    39.804121    40.131306    40.109718     48.15897 
  215800   -143259.33   -143362.53    103.19842    53.198455   -156401.25            0    999.81882    133.08514    -89.58787    -766.6181    227.06422    328.23458    40.123673    40.144075    48.146091 
  215900   -143259.44   -143361.42    101.98112    53.121766   -156401.02            0    999.42304     131.5153   -9.2742008    223.69757   -388.74268    191.60437    40.103357    40.166472    48.141364 
  216000   -143259.83   -143360.91    101.07485     53.31143   -156364.08            0    982.67077    130.34657     14.26388     655.2591   -265.31799   -290.61882    40.086681    40.158174     48.14956 
  216100   -143260.53   -143361.67      101.136    53.342262   -156404.38            0    1002.0617    130.42543   -79.567102   -138.99895    178.35454   -221.14173    40.112738    40.143193    48.158944 
  216200   -143261.44   -143362.66    101.21136     53.02406   -156389.58            0     993.7616    130.52261     30.38448   -392.63356    259.66422    275.34173    40.127445    40.120507    48.156808 
  216300   -143262.31    -143363.4    101.09266    52.613307   -156385.84            0    992.58635    130.36954   -76.901165    4.6052176   -207.36372    25.427917     40.11571    40.129557    48.159559 
  216400   -143262.72   -143363.71    100.98449    52.840129    -156398.4            0    997.01974    130.23004    26.950406    381.13617   -208.60131   -36.873153    40.121736    40.146306    48.138066 
  216500   -143262.81   -143363.43     100.6174     52.85616   -156390.01            0    993.78651    129.75664    -88.98827   -4.2967024    77.760563   -284.57972    40.119698    40.137729    48.151144 
  216600   -143262.69   -143363.15    100.45948    52.868926   -156396.78            0    996.64407    129.55299    28.382312   -206.97304    176.56801    173.05475    40.122242    40.130891    48.155544 
  216700   -143262.43   -143362.75    100.32507    53.196448   -156401.22            0    1000.1897    129.37965   -72.019675   -141.66254   -87.506761    65.372798    40.122506    40.116804    48.174269 
  216800   -143262.14   -143361.97    99.837466    53.218781   -156382.44            0    989.93986    128.75083    42.898918    303.40525   -98.534325   -26.265706    40.124114    40.103722    48.179353 
  216900   -143261.77   -143362.08    100.30747    53.028184   -156386.03            0    992.98109    129.35695   -30.603547      74.2734   -44.350951   -68.857775    40.137403    40.105144    48.162949 
  217000   -143261.36   -143362.74    101.37832    52.801574   -156421.54            0    1008.7054    130.73793   -25.882208   -354.48573    353.47056   -22.457657    40.146253    40.117149    48.158148 
  217100   -143261.07   -143362.13    101.06003     53.08112   -156376.31            0    986.82906    130.32745    32.313441   -212.94479   -27.002074    391.68276    40.147021     40.13643    48.111169 
  217200   -143260.68   -143362.55    101.87323    52.926184   -156409.17            0    1003.5007    131.37617    -80.30593     725.5084   -779.80955   -131.82021    40.122907    40.163888    48.125375 
  217300   -143260.26   -143361.84    101.58549    53.355803    -156394.3            0    995.41271    131.00509    52.351611    357.36261    170.12186   -314.03013    40.121415    40.152967    48.131187 
  217400   -143259.75   -143361.45    101.69079    53.186235   -156373.36            0     988.0855    131.14089   -77.353895    -884.7036    723.66816    -14.92058     40.13537    40.115976    48.146629 
  217500   -143259.25   -143360.75    101.50491    53.187342    -156425.2            0    1010.7216    130.90118    47.747321   -218.02918    130.28671    284.47857    40.123969    40.115732    48.188761 
  217600   -143258.96   -143359.65    100.68984    53.310316   -156371.49            0    987.61914    129.85006   -119.14693    453.31099   -692.75977   -64.976034    40.103436     40.11199    48.193649 
  217700   -143258.97   -143361.15    102.18316    53.270612   -156386.25            0    992.42679    131.77585    72.708489    326.75935    16.655716   -72.027814    40.114828     40.10024    48.196258 
  217800    -143259.5   -143362.32    102.82152    52.991009   -156423.73            0    1010.4332    132.59908   -110.52638   -505.53924     342.1529   -113.86297    40.159256    40.105958    48.161869 
  217900   -143260.49    -143361.6    101.11004    53.085927   -156356.26            0    978.75448    130.39195     27.28047   -158.53986    85.409046    206.91642    40.146698    40.124558    48.112068 
  218000   -143261.45   -143363.08    101.63408    53.079484   -156419.96            0     1008.589    131.06776   -33.891466    379.92474   -455.14091    26.628119    40.123875    40.170863    48.118667 
  218100   -143262.35   -143361.92     99.57671    53.214586   -156413.59            0      1005.67    128.41456    -55.19474    58.622835   -116.95739   -53.878571    40.130648    40.155164    48.127992 
  218200   -143262.77      -143363    100.22748    52.698577   -156371.29            0     985.2121    129.25379    37.367174   -214.51401    461.92035   -81.930181    40.118697    40.114575    48.162834 
  218300   -143262.96   -143363.67    100.70767    52.743706   -156424.87            0    1009.8865    129.87306   -83.680858   -376.47523    183.72666   -4.4743571    40.118059    40.099762    48.217596 
  218400   -143263.11   -143362.77    99.663135    53.411994   -156381.98            0    989.97822    128.52602     58.57635    428.35582   -397.11927    197.80239    40.097948    40.085844    48.228024 
  218500   -143262.87   -143363.79     100.9287    52.147641   -156387.86            0    992.84471    130.15809   -76.658963    287.26296   -427.41184   -37.326678    40.129467    40.069239    48.218641 
  218600   -143262.42   -143363.29    100.86455    52.578768   -156421.02            0    1007.3476    130.07536      14.2312   -269.38178    614.60962   -250.10895    40.182645    40.060245    48.182906 
  218700   -143261.72   -143362.74    101.01338      52.6471   -156366.78            0    983.43405     130.2673  -0.89762732   -342.77918    491.01099   -99.856398    40.173489    40.092284    48.124359 
  218800   -143260.63   -143361.34    100.70552    53.485392   -156402.71            0    1000.4291    129.87028   -23.014955    432.71497   -762.02114    313.52749    40.164068    40.154463    48.083485 
  218900   -143259.78   -143360.56    100.78112    53.208143   -156402.44            0    1000.1833    129.96777    5.9695002    595.66716   -821.36702    300.69539     40.12918     40.17644    48.098644 
  219000   -143259.25   -143362.22    102.97191    53.133763   -156347.75            0    975.64199    132.79303   -54.137603   -592.58339    952.01272   -468.02492    40.126121    40.123186    48.136075 
  219100   -143259.13    -143362.3    103.16437    53.254219   -156434.18            0    1015.1917    133.04123    9.6830168   -425.96231    853.19611   -343.49913    40.120674    40.112553     48.20011 
  219200   -143259.43   -143360.55    101.11931    53.542704    -156376.3            0    989.53907    130.40391   -64.211938    201.89826   -546.72649    206.07887    40.103751    40.099579    48.207281 
  219300   -143259.79   -143361.25    101.46124    53.539323   -156376.41            0    988.07148    130.84486    25.790839    313.40655   -436.36618    253.58897    40.118976     40.07164     48.22138 
  219400   -143260.17   -143361.81    101.64063    53.219675   -156439.09            0    1017.5575     131.0762    -42.04558   -91.204515    215.28527   -195.92369    40.138289    40.069931    48.235431 
  219500   -143260.58   -143360.87    100.28766    53.128625   -156339.92            0    971.55752    129.33141    10.660158   -267.79036    412.85842   -58.968354    40.138937    40.066375    48.183048 
  219600   -143260.93   -143361.35    100.41331    53.098688    -156393.7            0    996.23131    129.49345   -66.815037   -6.9458923   -232.07004    94.882786    40.148585     40.09209    48.173483 
  219700   -143261.34    -143362.7    101.36263    52.961164   -156412.68            0    1004.6681    130.71769    20.588663    254.56118   -355.56573    219.10154    40.147373    40.111507     48.15663 
  219800   -143261.79   -143362.56    100.77712    52.999467   -156363.76            0    982.32343    129.96262    -5.254517    38.345359    145.15584   -147.92381    40.145129    40.106645    48.139218 
  219900   -143262.19   -143362.38    100.19027    53.216027   -156413.34            0    1005.0087    129.20581    14.940559   -237.84753    507.68321    -175.1943    40.143502    40.119016     48.15292 
  220000   -143262.67   -143362.54    99.877621    52.957839   -156403.93            0    1001.1918    128.80262   -47.674088    -82.66066   -109.52931    99.107978     40.13228    40.126361    48.153561 
  220100   -143263.03   -143362.26    99.233065    53.340775   -156367.01            0     983.0872    127.97139    26.949301    432.41059   -679.38796    379.16786    40.110396    40.121132    48.165294 
  220200   -143263.21   -143362.87    99.655473    53.061951   -156412.43            0    1005.0843    128.51613   -106.41801    203.84805   -99.680586   -366.92897    40.131155    40.099554    48.193204 
  220300   -143263.35   -143363.67    100.31486    52.587605   -156383.51            0    989.73551    129.36648    86.808935   -631.65026    1395.3325   -445.43262    40.139701    40.069022    48.198391 
  220400   -143263.13   -143363.47    100.34684    52.696443   -156368.79            0    984.04445    129.40773   -59.590702   -502.85083    159.79492    220.74328    40.123183    40.098284    48.179503 
  220500   -143262.35   -143363.64    101.29749    52.683921   -156413.56            0     1005.014    130.63369   -14.326246    558.70244   -999.00981    450.29723    40.104357    40.137431    48.176782 
  220600   -143261.31   -143363.04    101.73116    53.095379   -156378.03            0    988.45481    131.19295   -9.7913526    373.01641   -199.11848   -148.36033    40.108986    40.122527    48.171968 
  220700   -143260.36   -143363.24    102.88261    53.032685   -156381.76            0    990.61391    132.67787   -24.343321    -427.6102    621.26993   -213.21644     40.15243    40.099344     48.14962 
  220800    -143259.9   -143361.74    101.83754    53.301638   -156412.15            0    1004.4758    131.33014    23.711684   -310.29155    307.02388    128.00028    40.176312    40.096056    48.143423 
  220900   -143259.69   -143361.22    101.53516    53.473995   -156381.33            0    991.37089    130.94019   -79.774114    187.88301   -582.48302    207.52784    40.147888    40.126217    48.125297 
  221000    -143259.8   -143361.91    102.10499    53.403784   -156391.48            0    994.93905    131.67504    54.713987    368.35079   -115.64996   -36.089456    40.115888    40.139253    48.149437 
  221100   -143260.31   -143361.19      100.884    53.499227   -156403.66            0    1001.4793    130.10044   -66.913508   -222.57626    335.63808   -258.47797    40.101004    40.149259    48.167223 
  221200   -143261.04    -143361.9    100.86022    53.228995   -156372.37            0    985.90259    130.06978    27.757711   -272.67474     322.1645    88.254937    40.097404    40.135808    48.166693 
  221300   -143261.98   -143362.05    100.06733    53.331207   -156403.02            0    1000.8828    129.04727   -76.433412    103.17796   -396.01728    115.71272    40.105087    40.136837     48.17512 
  221400   -143262.85   -143363.56    100.71803    52.668252   -156391.29            0    993.58827    129.88642    22.140518    473.14109   -452.61494    100.09444    40.110645    40.141959    48.153213 
  221500   -143263.46   -143361.78    98.325715    53.156327   -156385.99            0    992.76102    126.80127   -39.729703   -248.07015    445.71262   -260.77951      40.1455    40.111326    48.145788 
  221600   -143263.55   -143362.88    99.330441     53.09225   -156404.91            0     1000.733    128.09697   -1.3253839   -761.58517    812.15451  -0.27236738    40.156782    40.109887    48.143575 
  221700   -143263.36   -143362.95    99.596013    52.861603   -156375.65            0    986.52392    128.43945    18.648749    376.74028   -747.97688    480.38183    40.126867    40.135821    48.132643 
  221800   -143263.18   -143362.27    99.084871    52.863464   -156406.21            0    1002.6173    127.78028   -61.433882    1052.4393   -1200.9196    21.650693    40.097555    40.152047    48.164098 
  221900   -143262.86   -143362.84    99.985748    52.628253   -156401.79            0     999.0832    128.94206    45.071437   -98.374268    611.97088   -326.71471    40.114008    40.114434    48.186328 
  222000   -143262.44   -143363.25    100.80524    52.750905   -156366.85            0    983.82999    129.99888   -47.380672   -620.54892     649.5203   -113.71902    40.122604    40.096641    48.179073 
  222100   -143261.93   -143362.77     100.8337    53.016175   -156411.55            0    1003.4871    130.03558    46.496512    123.50637   -152.35885    219.72727    40.130812    40.113893     48.17344 
  222200   -143261.41   -143362.65    101.23929    52.740366    -156384.7            0    992.65892    130.55863   -58.617429    390.16576   -546.20911    31.774625    40.126341    40.118104    48.159923 
  222300   -143261.02   -143361.98    100.95313    53.391695   -156384.12            0    992.10228     130.1896    37.824404    48.915776    273.04408   -153.02988    40.130796    40.110332    48.160171 
  222400   -143260.73   -143360.24    99.510675    54.132393   -156411.24            0     1005.317     128.3294   -109.33268   -547.41642    468.99957   -197.47214    40.146305     40.11163    48.163716 
  222500   -143260.58    -143361.9    101.32613    52.932867   -156372.23            0    986.53151    130.67062    19.804636     87.71098   -139.95307    165.55815    40.114185    40.119857    48.163861 
  222600   -143260.75   -143361.61    100.85944    53.308265   -156405.46            0    1002.0246    130.06878   -25.447568    340.66117   -562.88552     203.2198    40.102956    40.135655    48.178827 
  222700   -143261.39   -143362.65    101.26886    53.106943   -156391.12            0    994.51426    130.59676   -57.140092    69.084248      55.4595   -243.51527    40.093942    40.134685     48.18593 
  222800   -143262.78   -143362.92    100.13802    52.916372   -156379.02            0    987.83108    129.13843    67.517879   -344.79959    791.22753   -192.13498    40.098215    40.136412    48.168004 
  222900   -143264.04   -143364.44    100.40395    53.041892   -156400.07            0    998.86081    129.48137   -91.024177   -359.99438   -172.76327    314.91807    40.112635    40.158411    48.136321 
  223000    -143264.5   -143364.12    99.620109    53.043413   -156400.04            0    997.48356    128.47053    80.383325    671.80706   -866.79078    490.78531    40.115978    40.158119    48.126692 
  223100   -143264.53   -143363.36    98.828955    52.832215   -156381.94            0    990.85469    127.45025   -127.06011    442.07811   -209.42439   -559.51952    40.131764    40.123878    48.146706 
  223200   -143264.02   -143363.05    99.031387    52.711265   -156402.49            0    998.85237    127.71131    73.445209   -639.44854    1371.1627   -457.63654      40.1603    40.089743    48.159837 
  223300   -143263.22   -143364.46    101.23123    52.559714   -156393.95            0    996.33925    130.54823     -104.367   -557.93165    65.481195    232.60796    40.141923    40.113483    48.151265 
  223400   -143262.41   -143363.98    101.57203    52.615844   -156398.94            0    997.23084    130.98774    37.456606    438.40864   -580.70164    309.87237    40.110872    40.126418     48.17419 
  223500   -143261.75   -143362.12    100.36699    53.150283   -156388.45            0    993.35005     129.4337   -64.700231     177.3738   -129.06011   -187.61746    40.100086    40.123359    48.190876 
  223600    -143261.3   -143362.81    101.51412    52.882276   -156390.62            0     994.3944    130.91306    17.500575   -129.32717     363.8081   -125.90582    40.088021    40.128511    48.194929 
  223700   -143261.06   -143362.25    101.18486    52.661234   -156403.14            0    1000.8494    130.48843   -68.650683   -347.07966    141.86484    56.002949    40.098617     40.14647    48.171353 
  223800   -143260.93   -143361.55    100.62037    53.340835   -156388.51            0    994.20438    129.76046    20.084959    97.666976   -192.24937     206.4047     40.11752     40.15028    48.131325 
  223900   -143260.92    -143362.2     101.2854    53.168339   -156376.43            0    988.50005     130.6181     -17.5733    371.24571   -286.38802   -84.281833    40.127109    40.147245     48.11946 
  224000      -143261   -143361.74    100.74064    53.284996   -156405.55            0    1001.8268    129.91557    13.714977    21.003594    264.73235   -192.20501    40.148582    40.124952    48.135941 
  224100   -143261.26    -143363.1    101.84811    52.953391    -156387.1            0    993.03299    131.34377   -21.893577   -514.00107    315.05242    189.18247    40.158456     40.10979    48.132215 
  224200   -143261.96   -143362.42    100.46636    52.857922   -156404.21            0    1000.7607    129.56186   -41.807491     50.67652   -280.52035    162.05599    40.141239    40.117425    48.155175 
  224300   -143263.07   -143363.03    99.965386    52.867075   -156384.28            0    990.77792     128.9158     22.29408    1024.9873   -594.86296   -307.54107    40.085298    40.141262    48.180504 
  224400   -143264.34   -143365.99    101.64706     51.73327   -156395.64            0    995.82395    131.08449   -75.290544   -141.09664     422.6608   -456.42342    40.079511    40.138647     48.19696 
  224500   -143265.26   -143363.96    98.695229    52.565441   -156405.81            0    999.67879     127.2778    58.682879   -1239.7422    897.84318    572.36807    40.102227    40.149918    48.160079 
  224600   -143265.38    -143364.4    99.019844    52.622279   -156379.21            0    988.68997    127.69642   -53.518392   -100.63409   -342.45235    336.68103    40.076372    40.166328    48.158247 
  224700   -143264.94   -143364.42    99.482238    52.536162   -156413.98            0     1004.703    128.29273    17.747181    999.29966   -629.33589   -262.31444    40.079241    40.147834    48.191506 
  224800   -143264.42    -143365.5    101.07551    52.435192    -156383.4            0     990.6058    130.34742   -67.039035    22.660045    147.52829   -313.09072    40.121531    40.098796     48.18603 
  224900   -143263.84   -143363.96    100.11412    52.575962   -156388.88            0    992.43528     129.1076    27.917513   -667.31997     613.3564    193.35836     40.16133    40.084651    48.158816 
  225000   -143263.19   -143364.06    100.86309    52.749291   -156398.09            0    996.81002    130.07348    2.5361354   -119.72622   -22.084077    205.37518    40.149888    40.119406    48.136632 
  225100   -143262.57   -143363.04    100.46829    52.843691   -156383.04            0    990.94115    129.56435   -42.025634    677.29777   -530.24484   -218.80913    40.121841    40.146826    48.129871 
  225200   -143262.11   -143361.82    99.707544    53.509258   -156391.76            0    995.37598    128.58329    16.588341     264.2113   0.62679438   -159.24241    40.105435    40.164466    48.131992 
  225300   -143261.64   -143362.18    100.53369    52.869701   -156395.14            0     996.9805    129.64868   -34.044867   -621.24545    475.28286    100.75655    40.089037    40.165138    48.154668 
  225400   -143261.28   -143360.88    99.605334    53.604997   -156386.44            0    993.62615    128.45148   -25.380141   -178.94208    34.828429     123.2917    40.062291     40.16171    48.185421 
  225500   -143260.91   -143362.19    101.28046    53.128898   -156394.78            0    996.50331    130.61173   -32.654872    415.99003    -378.3063   -80.645252    40.053597    40.166395    48.197286 
  225600   -143260.69   -143362.48    101.79258      52.9383   -156382.24            0    990.64611    131.27216   -30.515419    262.72286   -173.62456   -124.43967    40.047799    40.157608    48.207511 
  225700   -143260.49    -143361.2    100.70296    53.554603   -156388.48            0     993.6023    129.86698    6.2938977   -248.20617    363.47945   -39.289437    40.069946     40.14188    48.203795 
  225800   -143260.25   -143361.73    101.48343    53.942749   -156397.75            0    998.80526    130.87347   -37.991072   -222.76969    53.947245    108.08685    40.113417    40.146174     48.14842 
  225900   -143260.25   -143361.08    100.82925    53.663845   -156378.94            0     990.0411    130.02984   -13.180152    252.81607   -162.12048   -75.162085    40.127255     40.16513    48.099917 
  226000   -143260.76    -143360.7     99.94739    53.641149   -156405.75            0    1002.5219    128.89259   -24.018824    55.117588   -4.4484786   -64.525697    40.138292    40.174461    48.091301 
  226100   -143261.68   -143361.43    99.742926    53.199497   -156386.74            0     993.5063    128.62891   -25.942302   -212.12137     86.13988    101.79998    40.143418    40.159144    48.090888 
  226200   -143262.57   -143363.97    101.40009    52.544509   -156364.81            0    982.05511      130.766    9.6030179   -95.969767    61.326234    117.02025    40.123448    40.143502    48.119712 
  226300   -143263.25   -143363.35    100.09309    52.955146   -156429.59            0    1012.5452    129.08049   -29.636148    180.54107    -94.52326   -118.23679    40.115433     40.12508    48.188299 
  226400    -143263.7   -143362.87    99.171678    53.312201   -156392.27            0    995.40953    127.89223   -24.729772    133.12824   -206.40462     53.84989    40.106673    40.105276    48.202515 
  226500   -143263.78   -143364.58    100.79835    52.514111    -156375.6            0     986.6807       129.99    16.130151   -140.88302    227.83352    12.470041    40.121043     40.10338    48.175912 
  226600   -143263.61   -143363.93    100.31407    52.783855   -156422.94            0    1008.7996    129.36547   -13.013889    -114.2948    133.34357   -6.2195272    40.125026    40.145892    48.147773 
  226700   -143263.06   -143362.44    99.383685    53.125235   -156384.92            0    992.31334    128.16564   -62.597068     178.7963   -416.11082    104.13342    40.113766    40.161536    48.123046 
  226800   -143261.99   -143364.19    102.19866    53.072929   -156378.52            0    988.16811    131.79584    47.635774    515.66308   -419.17668     103.7681    40.117725    40.158199    48.114654 
  226900   -143261.03   -143363.75     102.7172    52.777107   -156418.54            0    1007.7762    132.46456   -89.231335    -547.3459    510.37138   -171.44065    40.154657    40.141232    48.118256 
  227000   -143260.49    -143362.2    101.70723    52.763962   -156365.07            0     982.5707    131.16209    57.885909   -415.78695    776.30422   -131.09892    40.151647    40.114685    48.121471 
  227100   -143260.22   -143361.94    101.71723    53.428496   -156396.83            0    999.03161    131.17498   -76.206975     397.2986   -666.95938     92.57156    40.142357    40.125258    48.138471 
  227200   -143260.31   -143361.62    101.30971    53.213678   -156416.23            0    1006.2265    130.64944    34.088796    591.21635   -666.21214    229.58447    40.129879    40.127068     48.16304 
  227300   -143260.48   -143362.28    101.80119    53.344519   -156368.15            0    985.15335    131.28326   -48.775556   -359.64909    424.02507   -156.59198    40.100667    40.122569    48.176244 
  227400   -143260.65   -143362.82    102.16339    53.446374   -156399.32            0    998.54565    131.75036   -18.433359    -434.8413    585.07652   -146.83451    40.085879    40.144274    48.185928 
  227500   -143261.04   -143361.66    100.61766    53.452255   -156404.26            0    1001.3639    129.75698   -54.999769    128.65236   -262.31358    24.139544    40.074121    40.188396    48.151996 
  227600   -143261.41   -143360.88    99.464333    52.953656   -156369.21            0    984.49804    128.26964   -7.5847762    307.10979   -442.70818    165.39263    40.071793    40.190072    48.134239 
  227700   -143261.67   -143361.31    99.641739    53.794532   -156395.43            0    997.54188    128.49842   -13.291061   -100.40902    236.78203   -119.13682    40.109985    40.153749    48.142618 
  227800   -143261.85   -143362.52    100.67499    53.543548   -156414.24            0    1005.9632    129.83091   -25.311225   -229.70676    244.17606   -35.551841    40.137704     40.13448    48.141901 
  227900   -143262.08   -143362.55    100.46823    53.053448   -156376.15            0    988.16488    129.56426   -28.693389    47.302042   -44.715261   -33.242016    40.143895    40.110784    48.141677 
  228000   -143262.26    -143361.6    99.335533    53.252399   -156384.22            0    992.12363    128.10354   -4.7884902    162.24214   -220.68726     97.85447    40.153523    40.096095    48.152617 
  228100   -143262.26   -143361.21     98.95366    53.238558    -156420.4            0    1009.2824    127.61107   -38.361968    -48.91413   -24.804264    9.0968563    40.155526    40.100208    48.165929 
  228200   -143262.18   -143363.18    100.99725    52.927819   -156363.67            0    981.56847    130.24649    -64.95945   -478.29604    483.68786   -145.10742    40.139397    40.114465    48.140975 
  228300   -143262.17   -143362.52    100.34882    53.308837   -156409.73            0    1002.6158    129.41028    78.134781    167.50098   -44.578472    167.81483    40.100844     40.15959     48.15152 
  228400   -143262.06   -143362.31    100.25334    53.372708   -156399.41            0    1000.0151    129.28715   -142.91727    912.45994   -1299.5766    14.392612    40.078849    40.177403    48.156376 
  228500   -143261.95   -143362.83    100.87418    53.265612   -156369.87            0    983.74455    130.08779    137.65331    97.758202    268.12168    101.42302    40.111626    40.120282    48.161979 
  228600   -143261.87   -143362.68    100.80643      53.2044   -156429.13            0    1013.1304    130.00041   -174.41386   -1024.9896    908.53793   -352.69156    40.154482    40.106918    48.169469 
  228700   -143261.76   -143363.86    102.09902    52.496799   -156378.63            0    987.33975    131.66735      117.727     36.54017    253.27175    119.32983    40.143502    40.116988    48.133491 
  228800   -143261.55   -143363.96    102.41182    52.863961   -156373.11            0    986.28057    132.07073   -83.525649    548.49477   -774.50102     29.38958    40.136948    40.137461    48.119446 
  228900   -143261.46   -143362.93    101.47949    53.020527   -156416.78            0    1005.1444     130.8684    57.670286     89.52872   -24.346166     160.5983    40.158009    40.138054    48.116042 
  229000   -143261.28    -143363.5    102.22333    52.962346   -156364.04            0    982.13496    131.82766   -47.776131    -334.5555    437.64367   -188.87839    40.154906     40.11198    48.122706 
  229100      -143261    -143362.5    101.50427    52.949516   -156399.06            0    998.51226    130.90036     42.04455   -18.657973    93.166428    106.93397    40.154788    40.115721    48.133889 
  229200   -143260.61   -143360.48    99.870659    53.708205   -156416.17            0    1006.9838    128.79364   -104.62139   -6.4824748   -359.26035    104.22997    40.156084    40.130906     48.13333 
  229300   -143260.22   -143361.54    101.32255    53.322159   -156345.62            0    973.13972      130.666    56.917907    255.10818   -43.660602    14.400538    40.127108    40.115114    48.141549 
  229400   -143259.99   -143360.32    100.32307    53.607842   -156405.23            0     1002.724    129.37707   -43.722308   -279.06647    298.88848   -96.511904    40.128985    40.123113    48.163396 
  229500    -143259.9   -143361.39     101.4922    53.363971   -156414.38            0     1006.189    130.88479   -14.649461   -122.70716    153.37065   -18.778026    40.110481    40.146858    48.162098 
  229600   -143260.03   -143362.57    102.54656    52.835004   -156343.98            0    972.86557     132.2445    8.2605608    452.60925   -610.45521    241.48828    40.086316    40.148316    48.149562 
  229700   -143260.55   -143361.43    100.88211    53.563206   -156427.84            0    1012.9582    130.09801   -117.65082    339.22204   -496.91472   -138.79192    40.121529    40.146437    48.159817 
  229800   -143261.41   -143362.32    100.91049    53.032449   -156399.61            0    998.09828    130.13461    96.303029   -595.74579    1296.1127   -357.68208    40.169065    40.094762    48.141431 
  229900   -143262.54   -143362.51    99.960881    52.730368   -156358.48            0    980.24629    128.90999   -126.49643   -632.96205    457.81618   -147.06016    40.189461    40.109676    48.083757 
  230000   -143263.13   -143362.65    99.515454    53.033546   -156439.68            0    1016.1942    128.33557     49.34338    584.40862   -758.26579    375.46304    40.169712    40.151129    48.097026 
  230100   -143263.37      -143364    100.62847    52.744402   -156371.78            0    985.96016    129.77091    -70.73707     297.0262   -530.32123    75.531364    40.133753    40.139149    48.117547 
  230200   -143263.45   -143362.34    98.892595    53.135577   -156389.96            0    993.71507    127.53232    38.305856   -343.15992    649.64394   -136.09805    40.122661    40.123298    48.159017 
  230300   -143263.21   -143362.01    98.800958    53.054509   -156422.65            0    1009.8477    127.41415   -96.648036    -379.4076    376.41696   -231.75202     40.11078    40.122273    48.197094 
  230400   -143262.71   -143363.44    100.72976    52.982656   -156361.66            0    980.49091    129.90154    59.710908    339.47199   -404.76805    300.78423    40.092735    40.127618    48.172767 
  230500   -143262.03   -143362.54    100.50725    52.943209   -156409.44            0     1003.644    129.61458   -60.616679     222.1227   -252.68309   -93.189176    40.112523    40.124181    48.184628 
  230600   -143261.08   -143362.37    101.28935    53.415891   -156402.55            0    1000.1833    130.62319     14.35544   -167.81925    239.83835    27.648652    40.129789    40.128367    48.152199 
  230700   -143260.06   -143361.86    101.79654    53.299375    -156363.7            0     982.6759    131.27727   -40.409495   -279.22307     315.0426   -104.48342    40.127231    40.127875    48.137685 
  230800   -143259.39   -143360.61    101.21775     53.49737   -156404.66            0    1001.2967    130.53086    25.906987    226.69977   -183.68265    85.671968    40.140878    40.142689    48.126163 
  230900   -143259.24   -143360.95     101.7089    53.867302   -156392.33            0    996.91551    131.16424   -66.421637    214.37254   -445.34466     84.73689    40.150279    40.145235    48.104984 
  231000    -143259.5   -143361.27    101.76343    53.374605   -156377.32            0    988.00125    131.23457    44.964775   -128.28941    349.46839   -30.004061    40.149099    40.121756    48.126134 
  231100   -143259.81   -143361.26    101.45166     53.59762    -156405.2            0    1002.5313    130.83251   -66.032765   -660.88734    843.08895   -327.76697    40.149202    40.107234    48.158302 
  231200    -143260.2   -143361.93    101.72779    53.285448   -156382.06            0    990.44603     131.1886    33.579701    309.73746   -397.08319     239.6563    40.108978    40.133384     48.16164 
  231300   -143260.75   -143362.85    102.10811     52.89136   -156390.26            0    994.25767    131.67907   -47.741558    891.00612    -1121.296    141.89728    40.084089    40.150295    48.176736 
  231400   -143261.48   -143362.11    100.62689    52.994014   -156397.06            0    997.75626    129.76888   -50.336193   -215.34722    191.77588   -73.084181    40.120733    40.123257    48.169328 
  231500   -143262.09   -143361.07    98.975787    53.476176   -156387.85            0    993.04202    127.63961    44.935158   -435.80207    768.67893   -144.72515    40.148304    40.100311    48.157005 
  231600   -143262.53   -143363.84    101.30899      53.0701   -156395.91            0    997.11486    130.64852    -52.76004   -7.0105987   -159.25606    63.463129    40.155232    40.126957    48.119632 
  231700   -143262.91    -143364.6    101.68327    52.406689   -156387.94            0    991.64455    131.13118    39.101312    394.65549   -387.82072    165.51049     40.15974    40.122688    48.114625 
  231800   -143263.11   -143363.75    100.64182    52.888026   -156385.69            0    991.47527    129.78814   -52.241938   -58.756298   -76.141595     33.28361    40.160483    40.122073    48.116679 
  231900   -143262.92   -143362.77    99.853222    53.330848   -156395.43            0    996.26738    128.77115    51.163506   -307.77529    486.67047    31.489606    40.143451    40.122661    48.136716 
  232000   -143262.37   -143362.52    100.15297    53.322943   -156395.18            0    997.17824    129.15771   -76.077383    7.7494213   -37.750828   -141.49569    40.099503    40.149159    48.161569 
  232100   -143261.31   -143362.69    101.38575    53.019784    -156390.5            0     993.9839     130.7475    13.498747    239.07865   -383.46973    241.57654    40.089359    40.160157    48.157983 
  232200   -143259.91   -143362.26    102.35287    53.164358   -156378.38            0    989.48322    131.99472   -22.196069    129.98406   -179.99594    41.743799    40.091887    40.150136    48.159932 
  232300   -143259.14    -143360.2    101.06201     53.38819   -156405.27            0    1001.2878    130.33001    47.683569   -228.69581    714.51736   -288.93759    40.112294    40.128801    48.176976 
  232400   -143258.92   -143360.47     101.5469    53.481491   -156365.15            0    984.14789    130.95532   -110.27911   -413.84103    318.12864   -182.04782    40.129317    40.096559    48.177628 
  232500   -143258.98   -143361.34    102.36442    53.286437   -156405.26            0    1001.8321     132.0096    51.093064    697.66418   -1180.2136    689.93166    40.144983     40.10932    48.157611 
  232600   -143259.58   -143361.04    101.45785    53.419198   -156398.72            0    999.13514    130.84049   -46.669295    426.50718   -777.83414    267.07825    40.159826     40.08973    48.163899 
  232700   -143260.37   -143362.16    101.78795    53.294679   -156374.64            0    987.26225    131.26619   -26.637841   -537.35933    988.17677   -475.95768    40.158812    40.069858    48.175652 
  232800   -143261.09   -143362.54    101.44989    53.103899   -156417.65            0    1007.2304    130.83022   -13.334632   -253.35078    504.00058   -236.34621    40.151063    40.109713    48.158868 
  232900   -143261.54   -143361.57    100.03169    52.983892   -156384.58            0    992.06541    129.00131   -43.404349    92.412794   -528.40806    362.36975    40.133684    40.150463    48.115695 
  233000    -143261.8   -143361.92    100.12541    52.961282   -156389.83            0    994.47131    129.12217    7.0593819    353.77022   -426.89612    152.33386    40.115271    40.164533    48.119224 
  233100   -143262.02    -143363.4    101.38386    52.943916   -156411.89            0    1004.2173    130.74507   -55.178183    -178.2951    346.47459   -277.57356    40.123666    40.152199    48.139031 
  233200   -143262.08   -143362.78     100.6949    52.666879   -156373.83            0    986.32511    129.85658    23.219725   -264.23618    555.51873    -165.6381    40.126179    40.127656      48.1411 
  233300   -143262.11   -143362.75    100.64553    52.782681   -156382.69            0     991.0665    129.79292   -62.630344    17.350827   -417.21441    264.69645    40.131199    40.127308     48.14258 
  233400   -143262.24   -143362.34    100.09811    52.422508   -156425.23            0    1009.7286    129.08696    12.558806    399.98478   -436.61871    126.32963    40.151347    40.107457    48.166116 
  233500   -143262.21   -143363.27    101.05377    52.592685   -156359.97            0    980.28811    130.31938    -45.07394   -152.04452    200.56158   -128.99426    40.152761    40.078354    48.163533 
  233600   -143261.92   -143363.41    101.48544    52.610465   -156421.15            0    1007.4195    130.87607    11.898638   -256.12711    464.39905   -115.63575    40.146598    40.092612    48.188404 
  233700   -143261.46   -143361.85    100.39086    52.758989   -156391.69            0    995.40721    129.46449   -49.596986   -84.784954   -60.908631    52.694282    40.115457    40.122246     48.17445 
  233800   -143260.45   -143360.79    100.33463    53.211119   -156371.93            0    985.99822    129.39197    34.719911    352.03137   -501.15847    305.37165    40.090722    40.162936    48.143149 
  233900   -143259.35   -143361.33    101.98515    53.161108   -156421.88            0    1010.0404     131.5205   -94.915725    40.230909    22.233739   -292.89817    40.097497    40.176469    48.149786 
  234000   -143258.87   -143360.92    102.04689    53.111669   -156384.35            0    992.46708    131.60012   -2.9186266   -383.66339    638.85942    -208.8432    40.109338    40.146879    48.146435 
  234100   -143258.91   -143359.94      101.031    53.414118   -156374.92            0    988.46617    130.29002   -77.424922   -123.35874   -125.78496    73.634138    40.123476    40.127052    48.153709 
  234200   -143259.28    -143361.8    102.51684    53.334707   -156420.23            0    1008.2869    132.20616     52.79382    433.62578   -741.29194    524.40442    40.133692    40.124641    48.162435 
  234300   -143260.21   -143364.07    103.86611    52.448525    -156372.1            0    986.28888    133.94619   -71.094945    230.79429   -109.18169    -274.7015    40.127151    40.092746    48.182975 
  234400   -143261.11   -143363.04    101.92262    53.050207    -156368.3            0    982.25027    131.43986    69.058909   -467.64263    1170.2498   -441.37161     40.14214    40.068798    48.193306 
  234500    -143261.9   -143362.38    100.47815    52.924327   -156415.91            0    1007.2591    129.57706   -86.118261   -426.53234    131.35101    93.281556    40.137003    40.111065    48.173298 
  234600   -143262.29    -143362.3    100.01254    52.983204   -156399.21            0      998.579    128.97661    6.0042391    411.39638    -755.2935     414.5244    40.105384    40.152551    48.150722 
  234700   -143262.45   -143362.29    99.841078    52.639932   -156373.02            0    986.20655    128.75549   -19.324024    226.87719   -222.21049   -8.2364313    40.103311    40.138475    48.156727 
  234800   -143262.55   -143362.61    100.05872    52.769319   -156387.34            0    993.33532    129.03617   -36.782048   -223.91401    412.29761   -240.65104    40.125975    40.109623    48.170732 
  234900   -143262.42   -143363.66    101.24089    52.577104   -156405.83            0    1000.8127    130.56069    8.3412023   -90.824305    128.35447     44.28473    40.143194    40.105095    48.165915 
  235000   -143262.18   -143364.14    101.95637    52.968686   -156378.04            0    988.43307    131.48338   -43.743249    19.795363   -227.07497    129.74409    40.146907    40.097195    48.156473 
  235100   -143261.96   -143362.04     100.0784    53.028715   -156407.66            0    1002.0541    129.06154    9.7537479    196.29335   -179.78016    66.056836    40.136131    40.115254    48.164631 
  235200   -143261.59   -143362.18    100.59628    52.875405   -156389.75            0    993.82288    129.72941   -31.867716    13.726746    184.37473   -238.71551    40.107523    40.130344    48.173474 
  235300   -143260.89   -143361.52    100.63534    53.395684   -156391.31            0    995.77598    129.77977   -25.284459   -149.27107    245.24069   -115.61028    40.079138    40.142956    48.190119 
  235400   -143259.71   -143361.73    102.02213    52.905926   -156405.95            0    1001.8016    131.56818   -14.681343    2.9626356   -253.14645    259.68016    40.097378    40.145152    48.176033 
  235500   -143258.56   -143361.82    103.25998    53.082802   -156375.95            0    988.12493    133.16453   -47.492819    184.41076   -481.05738    206.35811    40.138034    40.131107    48.129924 
  235600   -143257.97   -143360.75    102.77417    53.658527    -156397.1            0     998.1161    132.53801    28.550267    89.560836     341.2309   -293.17158     40.17013    40.110887    48.124434 
  235700   -143257.97   -143360.41    102.44097    53.509835   -156404.17            0    1001.4406    132.10832   -56.252414   -532.22987    688.05813   -268.33165    40.195528    40.093318    48.124739 
  235800   -143258.59    -143359.4    100.81476    53.757803    -156378.8            0    990.70678    130.01116    35.866025   -50.208563   -256.10812    471.37043    40.161465    40.104007     48.13013 
  235900   -143259.43   -143360.43    101.00359    53.614317   -156407.62            0    1004.2323    130.25468   -112.15329    316.61112   -945.07313    343.13496    40.122803    40.152762    48.140168 
  236000   -143260.25   -143361.58    101.32951    53.371694   -156410.45            0     1003.758    130.67498    85.090968    293.15245    356.36839   -342.06868    40.094278     40.14159    48.181814 
  236100   -143260.73   -143361.42     100.6907    53.087356   -156366.78            0    983.94561    129.85117   -89.403531   -760.75597    1495.7262   -945.32779    40.096757    40.113752    48.196401 
  236200   -143261.03   -143362.64    101.61268    53.225969   -156399.35            0    998.60954    131.04016    34.163123    -337.2495   -323.70179    819.86924    40.096104    40.144517     48.16963 
  236300   -143261.37   -143362.29    100.91882    53.338439   -156405.08            0    1002.4441    130.14536   -70.328017    567.39687   -1244.9644    521.32291    40.084109    40.155161    48.176795 
  236400   -143261.87   -143360.99    99.121343    53.390023   -156367.53            0    983.98932    127.82732   -0.8763792    155.04534    147.46832   -250.54943    40.112593    40.118639    48.168339 
  236500   -143262.14   -143362.43    100.28964    52.916066   -156395.36            0    996.71967    129.33396   -9.8194364   -234.99109    636.85624   -376.33616    40.141225    40.121094    48.144082 
  236600   -143262.53   -143363.68    101.14926    52.624273   -156417.56            0    1007.2106    130.44252   -75.832173   -226.89645   -64.734488    120.10974    40.148981    40.142244     48.12176 
  236700   -143262.93   -143363.08     100.1499      52.9146   -156365.96            0    982.24523    129.15375    3.1330016    103.85255    -448.2727    403.80056    40.141531    40.142838    48.102556 
  236800   -143263.08   -143363.35    100.26378    52.687269   -156393.86            0    995.56535    129.30061   -27.221697    246.35905   -33.113573    -242.1038    40.132948    40.150939    48.117253 
  236900   -143263.08   -143363.31     100.2356    52.860808   -156406.91            0    1001.7239    129.26427   -14.532499   -80.177787    368.73354   -275.52958    40.123275    40.146767    48.139473 
  237000   -143262.82   -143363.37    100.55132    52.643865   -156369.96            0    984.91388    129.67143   -29.837914   -88.324931    82.198139   -26.668813    40.098286    40.128947    48.171471 
  237100   -143262.03   -143363.46    101.42993    53.088972   -156412.47            0    1003.9894    130.80448    -13.77041   0.45170126   -368.77996    383.46804     40.10988     40.12947     48.18268 
  237200   -143260.99   -143362.86    101.87633    53.016903   -156396.14            0    996.76422    131.38016   -21.308793    289.65253   -45.176831   -254.29196    40.117091    40.108145    48.190645 
  237300   -143260.11    -143361.3    101.18605    53.020209    -156371.3            0    986.07347    130.48998  0.032293614   -46.699032    308.68558   -209.62944    40.135573     40.10433    48.158672 
  237400   -143259.49   -143362.78    103.29209    52.910954   -156411.09            0    1004.2339    133.20594   -52.582203   -389.67651    131.49315    155.30387    40.164213    40.116101    48.133962 
  237500   -143259.44   -143360.08    100.63571    53.790958   -156383.88            0    991.74484    129.78025    53.579751     200.6131   -404.40027    422.30445    40.142099    40.134201    48.122446 
  237600   -143259.75   -143361.14    101.39188    53.020525   -156369.17            0    985.31746    130.75541   -74.249793    423.98703   -536.56416   -51.865355    40.125035    40.149195    48.121208 
  237700   -143260.29   -143361.78    101.48859    53.253611    -156431.6            0    1013.8682    130.88013  -0.67729955      54.2539    838.66719   -835.21463    40.125576    40.112782    48.192792 
  237800   -143261.15   -143361.01     99.85949    53.632915   -156354.46            0    979.06183    128.77924   -72.25